

752 atoms
3 atom types
188 bonds
1 bond types

0 20.85 xlo xhi
0 20.85 ylo yhi
0 20.85 zlo zhi
0 0 0 xy xz yz

Masses

1 16
2 2
3 16

Atoms # full

  1	1	1	6	0.548749983	11.59712029	15.40571976
  2	2	1	6	0.726390004	10.84722042	12.76902008
  3	3	1	6	0.803900003	3.54885006	9.661970139
  4	4	1	6	0.871389985	0.582629979	9.444769859
  5	5	1	6	0.871389985	17.80366765	9.444769859
  6	6	1	6	0.888800025	3.548719883	14.41602039
  7	7	1	6	1.027870059	12.71312046	10.7801199
  8	8	1	6	1.174409986	15.94902039	6.944990158
  9	9	1	6	1.601050019	6.440639973	5.324160099
  10	10	1	6	1.764809966	10.56252003	6.723559856
  11	11	1	6	2.074779987	8.853919983	11.30541992
  12	12	1	6	2.126610041	2.861829996	2.828510046
  13	13	1	6	2.126610041	20.08286767	2.828510046
  14	14	1	6	2.126610041	2.861829996	20.04954772
  15	15	1	6	2.126610041	20.08286767	20.04954772
  16	16	1	6	2.425390005	13.4261198	6.172160149
  17	17	1	6	2.532870054	14.64962006	13.88731957
  18	18	1	6	2.609060049	4.423110008	12.10781956
  19	19	1	6	2.627229929	8.712920189	4.678050041
  20	20	1	6	2.640820026	10.59821987	9.350600243
  21	21	1	6	2.716660023	2.705970049	16.52359767
  22	22	1	6	2.716660023	19.92700772	16.52359767
  23	23	1	6	2.787270069	13.62831974	3.287800074
  24	24	1	6	2.81092	8.556489945	1.896299958
  25	25	1	6	2.81092	8.556489945	19.11733763
  26	26	1	6	2.973289967	6.929049969	16.31702042
  27	27	1	6	3.117880106	14.39132023	11.3249197
  28	28	1	6	3.152760029	12.28372002	15.38072014
  29	29	1	6	3.362289906	0.772650003	5.692450047
  30	30	1	6	3.362289906	17.99368768	5.692450047
  31	31	1	6	3.446670055	11.50741959	1.625570059
  32	32	1	6	3.446670055	11.50741959	18.84660773
  33	33	1	6	3.490999937	0.354290009	10.14692974
  34	34	1	6	3.490999937	17.57532768	10.14692974
  35	35	1	6	3.737159967	16.1439209	2.030090094
  36	36	1	6	3.737159967	16.1439209	19.25112777
  37	37	1	6	3.996380091	16.57910767	15.74962044
  38	38	1	6	4.059770107	6.815629959	12.05142021
  39	39	1	6	4.353390217	6.372159958	7.664959908
  40	40	1	6	4.371109963	8.539019585	14.33981991
  41	41	1	6	4.497960091	2.750070095	11.53382015
  42	42	1	6	4.497960091	19.97110777	11.53382015
  43	43	1	6	4.623189926	4.759309769	15.84632015
  44	44	1	6	4.65155983	2.914239883	3.428719997
  45	45	1	6	4.65155983	20.13527756	3.428719997
  46	46	1	6	4.72837019	3.385689974	6.163269997
  47	47	1	6	5.007420063	16.35972023	7.859819889
  48	48	1	6	5.066359997	11.2325201	14.09552002
  49	49	1	6	5.128970146	13.67381954	6.858170033
  50	50	1	6	5.161570072	11.41012001	8.8125
  51	51	1	6	5.396299839	12.72681999	11.80531979
  52	52	1	6	5.611889839	7.821640015	4.756989956
  53	53	1	6	5.834469795	3.044529915	13.95172024
  54	54	1	6	6.05092001	10.37261963	1.344810009
  55	55	1	6	6.05092001	10.37261963	18.56584768
  56	56	1	6	6.094799995	6.398089886	9.986260414
  57	57	1	6	6.352479935	0.723909974	3.330840111
  58	58	1	6	6.352479935	17.94494765	3.330840111
  59	59	1	6	6.485579968	4.289569855	1.602920055
  60	60	1	6	6.485579968	4.289569855	18.82395773
  61	61	1	6	6.514130116	7.842520237	15.95541954
  62	62	1	6	6.61796999	3.866420031	10.51161957
  63	63	1	6	6.788000107	0.503050029	15.31912041
  64	64	1	6	6.788000107	17.7240877	15.31912041
  65	65	1	6	7.271860123	4.828790188	4.596059799
  66	66	1	6	7.387969971	13.10801983	5.527589798
  67	67	1	6	7.545239925	3.390399933	7.72055006
  68	68	1	6	7.640120029	16.19802094	12.84512043
  69	69	1	6	7.759419918	0.437409997	7.951340199
  70	70	1	6	7.759419918	17.65844767	7.951340199
  71	71	1	6	7.768459797	1.95551002	1.10571003
  72	72	1	6	7.768459797	19.17654769	1.10571003
  73	73	1	6	7.768459797	1.95551002	18.3267477
  74	74	1	6	7.768459797	19.17654769	18.3267477
  75	75	1	6	7.799389839	11.23482037	3.324419975
  76	76	1	6	7.91369009	4.140029907	12.95411968
  77	77	1	6	7.918049812	6.543839932	1.512930036
  78	78	1	6	7.918049812	6.543839932	18.73396771
  79	79	1	6	8.060110092	15.79712009	5.24146986
  80	80	1	6	8.114819527	6.368969917	14.31861973
  81	81	1	6	8.12362957	11.67541981	14.71922016
  82	82	1	6	8.123740196	9.831159592	7.971920013
  83	83	1	6	8.496069908	7.507369995	9.637129784
  84	84	1	6	8.730620384	13.60762024	12.7580204
  85	85	1	6	9.040610313	12.87172031	0.902890027
  86	86	1	6	9.040610313	12.87172031	18.1239277
  87	87	1	6	9.143670082	16.32781982	10.49042034
  88	88	1	6	9.230939865	15.58071995	0.853559971
  89	89	1	6	9.230939865	15.58071995	18.07459765
  90	90	1	6	9.263589859	12.54102039	7.487510204
  91	91	1	6	9.373950005	7.707230091	12.15692043
  92	92	1	6	9.573989868	9.335709572	5.441239834
  93	93	1	6	9.799550057	13.80412006	10.19773006
  94	94	1	6	9.826439858	3.642090082	6.460680008
  95	95	1	6	10.00465012	7.57585001	3.319149971
  96	96	1	6	10.06649017	5.616630077	16.30232048
  97	97	1	6	10.26998997	2.822040081	0.741999984
  98	98	1	6	10.26998997	20.04307776	0.741999984
  99	99	1	6	10.26998997	2.822040081	17.96303766
  100	100	1	6	10.26998997	20.04307776	17.96303766
  101	101	1	6	10.27388954	16.01122093	3.543190002
  102	102	1	6	10.33602047	2.208590031	10.41501999
  103	103	1	6	10.33602047	19.42962771	10.41501999
  104	104	1	6	10.34224987	2.88970995	13.00131989
  105	105	1	6	10.34224987	20.11074762	13.00131989
  106	106	1	6	10.37082005	9.819319725	13.92471981
  107	107	1	6	10.43171978	4.613959789	9.020339966
  108	108	1	6	11.17901993	9.75537014	8.103580475
  109	109	1	6	11.33771992	11.84912014	1.700109959
  110	110	1	6	11.33771992	11.84912014	18.92114763
  111	111	1	6	11.47212029	5.35051012	4.800250053
  112	112	1	6	11.54751968	1.794849992	5.4134202
  113	113	1	6	11.54751968	19.01588767	5.4134202
  114	114	1	6	11.69421959	14.21401978	13.69312
  115	115	1	6	11.7023201	2.964699984	3.099100113
  116	116	1	6	11.7023201	20.18573766	3.099100113
  117	117	1	6	11.72702026	1.433179975	15.13601971
  118	118	1	6	11.72702026	18.65421765	15.13601971
  119	119	1	6	11.74211979	9.619509697	3.207509995
  120	120	1	6	11.76222038	13.70952034	3.869129896
  121	121	1	6	11.78501988	13.2332201	6.6698699
  122	122	1	6	11.84891987	15.33751965	16.23461914
  123	123	1	6	12.11972046	12.07532024	9.899709702
  124	124	1	6	12.13022041	7.217850208	12.01441956
  125	125	1	6	12.16501999	6.961520195	9.123149872
  126	126	1	6	12.3219204	7.597970009	15.55142021
  127	127	1	6	12.56462002	11.47772026	13.46562004
  128	128	1	6	12.58821964	4.619160175	13.37551975
  129	129	1	6	13.16092014	4.133470058	15.96732044
  130	130	1	6	13.19861984	9.56289959	5.710549831
  131	131	1	6	13.27212048	11.82021999	16.09272003
  132	132	1	6	13.41042042	2.099740028	9.483249664
  133	133	1	6	13.41042042	19.3207777	9.483249664
  134	134	1	6	13.66851997	6.889780045	5.627679825
  135	135	1	6	13.73342037	8.364509583	1.373739958
  136	136	1	6	13.73342037	8.364509583	18.59477763
  137	137	1	6	13.76191998	1.778429985	6.749410152
  138	138	1	6	13.76191998	18.99946766	6.749410152
  139	139	1	6	13.92512035	14.95991993	11.96512032
  140	140	1	6	14.31742001	13.35622025	7.614439964
  141	141	1	6	14.35072041	15.74761963	0.953299999
  142	142	1	6	14.35072041	15.74761963	18.17433767
  143	143	1	6	14.36762047	14.51041985	3.619450092
  144	144	1	6	14.37432003	9.761779785	12.14622021
  145	145	1	6	14.64221954	1.902510047	15.86832047
  146	146	1	6	14.64221954	19.12354772	15.86832047
  147	147	1	6	14.65571976	6.896009922	8.090029717
  148	148	1	6	14.7485199	13.08722019	10.36217022
  149	149	1	6	14.76531982	7.223139763	14.44402027
  150	150	1	6	14.79891968	15.74022007	6.158289909
  151	151	1	6	14.80611992	5.912020207	1.46547997
  152	152	1	6	14.80611992	5.912020207	18.68651764
  153	153	1	6	14.99322033	0.73605001	11.03332043
  154	154	1	6	14.99322033	17.95708768	11.03332043
  155	155	1	6	15.02931976	4.123839855	10.88591957
  156	156	1	6	15.29341984	13.74662018	15.92671967
  157	157	1	6	15.39391995	10.53092003	1.007650018
  158	158	1	6	15.39391995	10.53092003	18.22868769
  159	159	1	6	15.57252026	5.620210171	4.081870079
  160	160	1	6	15.60431957	11.36382008	6.308169842
  161	161	1	6	15.83901978	3.263430119	5.882390022
  162	162	1	6	15.85091972	12.24882031	3.291670084
  163	163	1	6	15.91242027	8.184800148	10.24079037
  164	164	1	6	15.93581963	6.35074997	12.15762043
  165	165	1	6	16.05512047	15.00671959	13.62882042
  166	166	1	6	16.25102043	1.212630034	13.41322041
  167	167	1	6	16.25102043	18.43366771	13.41322041
  168	168	1	6	16.64025767	5.232029915	7.482140064
  169	169	1	6	16.87217766	5.914720058	15.92261982
  170	170	1	6	17.76978766	11.59712029	15.40571976
  171	171	1	6	17.94742768	10.84722042	12.76902008
  172	172	1	6	18.02493768	3.54885006	9.661970139
  173	173	1	6	18.09242766	0.582629979	9.444769859
  174	174	1	6	18.09242766	17.80366765	9.444769859
  175	175	1	6	18.1098377	3.548719883	14.41602039
  176	176	1	6	18.24890773	12.71312046	10.7801199
  177	177	1	6	18.39544766	15.94902039	6.944990158
  178	178	1	6	18.82208769	6.440639973	5.324160099
  179	179	1	6	18.98584764	10.56252003	6.723559856
  180	180	1	6	19.29581766	8.853919983	11.30541992
  181	181	1	6	19.34764772	2.861829996	2.828510046
  182	182	1	6	19.34764772	20.08286767	2.828510046
  183	183	1	6	19.34764772	2.861829996	20.04954772
  184	184	1	6	19.34764772	20.08286767	20.04954772
  185	185	1	6	19.75390773	14.64962006	13.88731957
  186	186	1	6	19.8618577	10.59821987	9.350600243
  187	187	1	6	19.9376977	2.705970049	16.52359767
  188	188	1	6	19.9376977	19.92700772	16.52359767
  189	1	2	1	1.492200017	11.9146204	15.52291966
  190	2	2	1	0.736180008	11.57841969	12.09821987
  191	3	2	1	0.68175	2.60352993	9.569919586
  192	4	2	1	1.801319957	0.637239993	9.732159615
  193	5	2	1	1.801319957	17.85827767	9.732159615
  194	6	2	1	1.545660019	3.955440044	13.74862003
  195	7	2	1	1.618209958	12.16351986	10.22039986
  196	8	2	1	0.271129996	15.89931965	6.477759838
  197	9	2	1	2.016900063	5.806879997	4.699180126
  198	10	2	1	1.99040997	10.00876999	5.950560093
  199	11	2	1	2.711019993	8.115739822	11.50642014
  200	12	2	1	2.069149971	2.770960093	1.827990055
  201	13	2	1	2.069149971	19.99199777	1.827990055
  202	14	2	1	2.069149971	2.770960093	19.04902773
  203	15	2	1	2.069149971	19.99199777	19.04902773
  204	16	2	1	3.324140072	13.51972008	6.51526022
  205	17	2	1	2.835939884	14.53052044	12.93262005
  206	18	2	1	3.288510084	3.670209885	12.01181984
  207	19	2	1	3.589869976	8.516719818	4.827169895
  208	20	2	1	2.516760111	9.868519783	10.0538702
  209	21	2	1	1.984740019	2.781749964	15.77132034
  210	22	2	1	1.984740019	20.00278764	15.77132034
  211	23	2	1	3.23119998	14.37481976	2.814699888
  212	24	2	1	3.023250103	9.482089996	1.662590027
  213	25	2	1	3.023250103	9.482089996	18.8836277
  214	26	2	1	2.074810028	6.466639996	16.03342056
  215	27	2	1	3.28779006	15.28232002	10.90581989
  216	28	2	1	3.14467001	13.17212009	14.90622044
  217	29	2	1	2.479229927	0.603500009	6.069409847
  218	30	2	1	2.479229927	17.82453768	6.069409847
  219	31	2	1	3.210530043	11.78792	0.724919975
  220	32	2	1	3.210530043	11.78792	17.94595765
  221	33	2	1	4.115109921	0.155509993	9.332360268
  222	34	2	1	4.115109921	17.37654767	9.332360268
  223	35	2	1	2.976330042	16.64824767	2.424959898
  224	36	2	1	2.976330042	16.64824767	19.64599757
  225	37	2	1	3.884740114	16.1289196	16.58975768
  226	38	2	1	4.898059845	6.661670208	11.58061981
  227	39	2	1	3.522769928	6.862360001	7.874650002
  228	40	2	1	3.648710012	8.275159836	14.98482037
  229	41	2	1	5.010069847	2.708669901	12.3650198
  230	42	2	1	5.010069847	19.92970758	12.3650198
  231	43	2	1	3.94333005	4.055039883	16.00382042
  232	44	2	1	3.783040047	2.890500069	2.904680014
  233	45	2	1	3.783040047	20.11153774	2.904680014
  234	46	2	1	4.68516016	3.336469889	5.184810162
  235	47	2	1	5.922530174	16.56933768	8.013569832
  236	48	2	1	6.091730118	11.23231983	14.27822018
  237	49	2	1	5.01281023	14.64431953	7.173560143
  238	50	2	1	5.320569992	11.84591961	9.714550018
  239	51	2	1	5.37225008	11.9669199	12.48202038
  240	52	2	1	6.305809975	8.46487999	4.85311985
  241	53	2	1	5.450570107	3.72507	14.64671993
  242	54	2	1	5.946899891	9.970060349	0.498879999
  243	55	2	1	5.946899891	9.970060349	17.71991767
  244	56	2	1	5.485720158	6.482130051	9.184470177
  245	57	2	1	5.669680119	1.477869988	3.435790062
  246	58	2	1	5.669680119	18.69890766	3.435790062
  247	59	2	1	7.071929932	5.063700199	1.56874001
  248	60	2	1	7.071929932	5.063700199	18.78977768
  249	61	2	1	5.939199925	8.275090218	15.36091995
  250	62	2	1	6.380889893	4.820680141	10.30121994
  251	63	2	1	7.256800175	0.016729999	14.55862045
  252	64	2	1	7.256800175	17.23776767	14.55862045
  253	65	2	1	7.445020199	4.566720009	3.670160055
  254	66	2	1	6.551519871	13.21652031	6.112360001
  255	67	2	1	7.36495018	3.704799891	8.643219948
  256	68	2	1	7.94987011	15.26142025	12.92271996
  257	69	2	1	7.820219994	1.442589998	7.914519787
  258	70	2	1	7.820219994	18.66362767	7.914519787
  259	71	2	1	8.692609787	2.259579897	1.126129985
  260	72	2	1	8.692609787	19.48061757	1.126129985
  261	73	2	1	8.692609787	2.259579897	18.34716766
  262	74	2	1	8.692609787	19.48061757	18.34716766
  263	75	2	1	8.506790161	10.61832047	3.444360018
  264	76	2	1	8.881270409	3.737590075	12.94641972
  265	77	2	1	8.58520031	6.999400139	2.07020998
  266	78	2	1	8.58520031	6.999400139	19.29124765
  267	79	2	1	7.386229992	16.17472076	4.571080208
  268	80	2	1	8.665679932	5.723100185	14.88801956
  269	81	2	1	8.381799698	12.04671955	15.6252203
  270	82	2	1	8.202079773	9.027819634	8.573889732
  271	83	2	1	8.983389854	6.697850227	9.356619835
  272	84	2	1	9.127840042	13.34142017	11.89682007
  273	85	2	1	8.605910301	12.48801994	1.735389948
  274	86	2	1	8.605910301	12.48801994	18.95642762
  275	87	2	1	8.605660439	16.31023026	9.699150085
  276	88	2	1	8.961400032	14.64782047	0.992169976
  277	89	2	1	8.961400032	14.64782047	18.21320765
  278	90	2	1	9.192009926	11.61952019	7.881750107
  279	91	2	1	8.950989723	7.334740162	12.95372009
  280	92	2	1	9.252389908	9.473010063	6.40639019
  281	93	2	1	9.470299721	13.59051991	9.312410355
  282	94	2	1	10.32645989	2.872380018	6.158370018
  283	95	2	1	10.53542042	6.734079838	3.591419935
  284	96	2	1	10.30373001	4.687520027	16.53061768
  285	97	2	1	10.80241966	2.747420073	1.597849965
  286	98	2	1	10.80241966	19.96845775	1.597849965
  287	99	2	1	10.80241966	2.747420073	18.81888764
  288	100	2	1	10.80241966	19.96845775	18.81888764
  289	101	2	1	9.761440277	15.98241997	2.649169922
  290	102	2	1	10.11750031	1.259739995	10.25481033
  291	103	2	1	10.11750031	18.48077767	10.25481033
  292	104	2	1	10.72152042	2.212059975	13.62242031
  293	105	2	1	10.72152042	19.43309765	13.62242031
  294	106	2	1	10.68212032	9.094389916	14.50382042
  295	107	2	1	10.29621029	3.867130041	9.624600411
  296	108	2	1	11.79481983	9.557120323	7.3678298
  297	109	2	1	12.06661987	11.74892044	1.009430051
  298	110	2	1	12.06661987	11.74892044	18.23046773
  299	111	2	1	11.76772022	4.633510113	4.199639797
  300	112	2	1	11.31721973	0.852530003	5.182929993
  301	113	2	1	11.31721973	18.07356768	5.182929993
  302	114	2	1	11.62541962	14.60552025	14.57071972
  303	115	2	1	12.56492043	2.680840015	2.753969908
  304	116	2	1	12.56492043	19.90187769	2.753969908
  305	117	2	1	12.59321976	1.88083005	15.25961971
  306	118	2	1	12.59321976	19.10186772	15.25961971
  307	119	2	1	12.45481968	9.18830967	2.700180054
  308	120	2	1	11.49122047	13.14272022	3.083859921
  309	121	2	1	11.69752026	13.34152031	5.662059784
  310	122	2	1	12.61902046	15.37032032	16.86931768
  311	123	2	1	11.95662022	11.37852001	9.254650116
  312	124	2	1	12.43391991	7.099020004	11.08701992
  313	125	2	1	13.14552021	6.986519814	8.803620338
  314	126	2	1	11.66141987	6.855199814	15.73211956
  315	127	2	1	11.77931976	10.85002041	13.38621998
  316	128	2	1	11.91602039	4.04776001	12.93671989
  317	129	2	1	13.30601978	4.861390114	16.56131767
  318	130	2	1	13.92302036	10.17125034	5.890170097
  319	131	2	1	14.09652042	11.32221985	16.28421974
  320	132	2	1	13.65592003	1.896810055	8.583080292
  321	133	2	1	13.65592003	19.11784773	8.583080292
  322	134	2	1	13.50811958	7.868500233	5.412360191
  323	135	2	1	14.49281979	8.931010246	1.056380034
  324	136	2	1	14.49281979	8.931010246	18.27741771
  325	137	2	1	14.05401993	0.844219983	6.678040028
  326	138	2	1	14.05401993	18.06525766	6.678040028
  327	139	2	1	14.03162003	15.91152	11.62191963
  328	140	2	1	14.29362011	13.23571968	8.681559563
  329	141	2	1	14.58701992	16.66698767	0.606280029
  330	142	2	1	14.58701992	16.66698767	17.8273177
  331	143	2	1	14.44132042	14.88092041	2.707600117
  332	144	2	1	15.18282032	10.37432003	12.29131985
  333	145	2	1	15.17442036	1.861559987	15.05591965
  334	146	2	1	15.17442036	19.08259766	15.05591965
  335	147	2	1	14.42352009	7.015359879	7.151740074
  336	148	2	1	15.74162006	13.00452042	10.44032002
  337	149	2	1	13.89321995	7.129179955	14.94742012
  338	150	2	1	14.63171959	15.5657196	5.16053009
  339	151	2	1	15.06912041	5.909450054	2.470659971
  340	152	2	1	15.06912041	5.909450054	19.69169765
  341	153	2	1	15.83602047	0.421849996	10.52752018
  342	154	2	1	15.83602047	17.64288767	10.52752018
  343	155	2	1	15.8721199	3.756639957	10.51231957
  344	156	2	1	15.92362022	13.07872009	15.68811989
  345	157	2	1	16.08852005	10.8049202	0.266169995
  346	158	2	1	16.08852005	10.8049202	17.48720767
  347	159	2	1	16.45231767	6.039959908	4.354010105
  348	160	2	1	15.6245203	11.70541954	5.404429913
  349	161	2	1	16.30591965	3.931819916	6.472270012
  350	162	2	1	16.77991769	12.42461968	3.464349985
  351	163	2	1	15.38142014	8.865570068	10.6697197
  352	164	2	1	15.41201973	5.593090057	11.74122047
  353	165	2	1	15.33022022	14.77791977	13.0403204
  354	166	2	1	16.29552078	0.258020014	13.60972023
  355	167	2	1	16.29552078	17.47905769	13.60972023
  356	168	2	1	17.15932769	5.599780083	6.720590115
  357	169	2	1	16.97296768	5.036870003	15.41961956
  358	170	2	1	18.71323769	11.9146204	15.52291966
  359	171	2	1	17.95721768	11.57841969	12.09821987
  360	172	2	1	17.90278767	2.60352993	9.569919586
  361	173	2	1	19.02235763	0.637239993	9.732159615
  362	174	2	1	19.02235763	17.85827767	9.732159615
  363	175	2	1	18.76669769	3.955440044	13.74862003
  364	176	2	1	18.83924763	12.16351986	10.22039986
  365	177	2	1	17.49216767	15.89931965	6.477759838
  366	178	2	1	19.23793774	5.806879997	4.699180126
  367	179	2	1	19.21144764	10.00876999	5.950560093
  368	180	2	1	19.93205767	8.115739822	11.50642014
  369	181	2	1	19.29018765	2.770960093	1.827990055
  370	182	2	1	19.29018765	19.99199777	1.827990055
  371	183	2	1	19.29018765	2.770960093	19.04902773
  372	184	2	1	19.29018765	19.99199777	19.04902773
  373	185	2	1	20.05697756	14.53052044	12.93262005
  374	186	2	1	19.73779779	9.868519783	10.0538702
  375	187	2	1	19.20577769	2.781749964	15.77132034
  376	188	2	1	19.20577769	20.00278764	15.77132034
  377	1	2	1	0.73872	11.28802013	14.5080204
  378	2	2	1	1.425340056	10.25177002	12.41152
  379	3	2	1	0.486849994	4.063300133	8.859239578
  380	4	2	1	0.963840008	0.204019994	8.525279999
  381	5	2	1	0.963840008	17.42505767	8.525279999
  382	6	2	1	0.621810019	2.640130043	14.07042027
  383	7	2	1	1.575500011	13.51832008	10.88202
  384	8	2	1	1.479410052	15.02071953	6.710959911
  385	9	2	1	2.031869888	7.305419922	5.102290154
  386	10	2	1	0.807730019	10.85231972	6.704699993
  387	11	2	1	1.273679972	8.365670204	10.95011997
  388	12	2	1	1.243250012	2.988359928	3.257550001
  389	13	2	1	1.243250012	20.2093976	3.257550001
  390	14	2	1	1.243250012	2.988359928	20.47858768
  391	15	2	1	1.243250012	20.2093976	20.47858768
  392	16	2	1	2.257760048	12.39161968	6.232079983
  393	17	2	1	1.576370001	14.8823204	13.68432045
  394	18	2	1	1.893079996	4.202799797	11.45042038
  395	19	2	1	2.488339901	8.754320145	3.656879902
  396	20	2	1	2.198349953	10.50362015	8.515370369
  397	21	2	1	3.227979899	1.855970025	16.31201935
  398	22	2	1	3.227979899	19.0770077	16.31201935
  399	23	2	1	2.690360069	13.91112042	4.227469921
  400	24	2	1	2.860850096	8.053560257	1.019510031
  401	25	2	1	2.860850096	8.053560257	18.24054771
  402	26	2	1	3.643079996	6.300749779	16.38702011
  403	27	2	1	3.960730076	13.85112	11.46352005
  404	28	2	1	3.95765996	11.93311977	14.95151997
  405	29	2	1	3.499209881	1.746260047	5.808460236
  406	30	2	1	3.499209881	18.96729772	5.808460236
  407	31	2	1	3.241080046	12.20641995	2.299499989
  408	32	2	1	3.241080046	12.20641995	19.52053766
  409	33	2	1	3.760139942	1.117259979	10.66891956
  410	34	2	1	3.760139942	18.33829765	10.66891956
  411	35	2	1	4.549180031	16.28904915	2.543060064
  412	36	2	1	4.549180031	16.28904915	19.76409774
  413	37	2	1	3.484689951	15.97861958	15.13012028
  414	38	2	1	3.652009964	5.944250107	11.99112034
  415	39	2	1	4.777929783	7.001329899	7.043719769
  416	40	2	1	4.268380165	7.896540165	13.62112045
  417	41	2	1	5.176300049	3.471199989	11.16841984
  418	42	2	1	5.176300049	20.69223766	11.16841984
  419	43	2	1	5.275410175	4.620790005	16.58881767
  420	44	2	1	5.376959801	3.449189901	2.99458003
  421	45	2	1	5.376959801	20.67022757	2.99458003
  422	46	2	1	4.416100025	4.329370022	6.339660168
  423	47	2	1	4.738629818	16.81300768	7.059360027
  424	48	2	1	4.782030106	10.29006004	14.03812027
  425	49	2	1	5.018909931	13.0440197	7.646309853
  426	50	2	1	4.137300015	11.15421963	8.961270332
  427	51	2	1	6.198530197	13.1999197	11.9693203
  428	52	2	1	5.998310089	7.028560162	4.352379799
  429	53	2	1	6.126959801	2.239609957	14.41981983
  430	54	2	1	5.16602993	10.8643198	1.388069987
  431	55	2	1	5.16602993	10.8643198	18.60910766
  432	56	2	1	6.903800011	6.932360172	9.909420013
  433	57	2	1	6.795899868	1.068060041	2.509130001
  434	58	2	1	6.795899868	18.28909772	2.509130001
  435	59	2	1	7.019060135	3.507040024	1.390949965
  436	60	2	1	7.019060135	3.507040024	18.61198764
  437	61	2	1	6.982989788	7.193769932	15.38111973
  438	62	2	1	7.178719997	4.009160042	11.32252026
  439	63	2	1	5.881740093	0.199090004	15.4492197
  440	64	2	1	5.881740093	17.42012768	15.4492197
  441	65	2	1	8.085780144	5.13394022	4.971149921
  442	66	2	1	7.306930065	12.53221989	4.749519825
  443	67	2	1	6.704870224	3.545619965	7.206560135
  444	68	2	1	8.110199928	16.52921768	12.04741955
  445	69	2	1	8.045820236	0.016690001	7.097569943
  446	70	2	1	8.045820236	17.23772768	7.097569943
  447	71	2	1	7.697360039	1.491520047	0.240170002
  448	72	2	1	7.697360039	18.71255772	0.240170002
  449	73	2	1	7.697360039	1.491520047	17.46120768
  450	74	2	1	7.697360039	18.71255772	17.46120768
  451	75	2	1	7.176159859	10.8487196	2.65286994
  452	76	2	1	7.329249859	3.494620085	13.40141964
  453	77	2	1	7.351449966	7.255489826	1.110389948
  454	78	2	1	7.351449966	7.255489826	18.33142762
  455	79	2	1	7.712009907	14.88502026	5.472020149
  456	80	2	1	7.750999928	5.656829834	13.74802017
  457	81	2	1	8.692219734	10.8589201	14.58261967
  458	82	2	1	7.308330059	10.29028034	8.312339783
  459	83	2	1	8.781209946	7.531030178	10.65291977
  460	84	2	1	8.641750336	12.84482002	13.42691994
  461	85	2	1	9.946180344	12.73141956	1.144090056
  462	86	2	1	9.946180344	12.73141956	18.36512773
  463	87	2	1	9.471540451	15.37012005	10.5219202
  464	88	2	1	8.591670036	16.02261925	0.246470004
  465	89	2	1	8.591670036	16.02261925	17.46750768
  466	90	2	1	8.554030418	12.60912037	6.80354023
  467	91	2	1	10.34671021	7.426529884	12.01912022
  468	92	2	1	10.5202198	9.642519951	5.594560146
  469	93	2	1	10.63461971	13.23211956	10.21706009
  470	94	2	1	8.938810349	3.320159912	6.810760021
  471	95	2	1	9.862279892	8.013680458	4.2209301
  472	96	2	1	9.485079765	5.831130028	17.05872768
  473	97	2	1	10.86161995	2.490269899	0.04803
  474	98	2	1	10.86161995	19.71130757	0.04803
  475	99	2	1	10.86161995	2.490269899	17.26906767
  476	100	2	1	10.86161995	19.71130757	17.26906767
  477	101	2	1	9.597829819	15.9360199	4.228129864
  478	102	2	1	11.27721977	2.1224401	10.18488979
  479	103	2	1	11.27721977	19.34347777	10.18488979
  480	104	2	1	10.33055973	2.424550057	12.1344204
  481	105	2	1	10.33055973	19.64558773	12.1344204
  482	106	2	1	9.910010338	9.339509964	13.21102047
  483	107	2	1	10.36351013	4.260389805	8.130149841
  484	108	2	1	11.29621983	8.94178009	8.636619568
  485	109	2	1	11.38632011	11.04172039	2.252990007
  486	110	2	1	11.38632011	11.04172039	19.47402768
  487	111	2	1	10.87541962	4.936220169	5.471000195
  488	112	2	1	12.40062046	1.805430055	5.881549835
  489	113	2	1	12.40062046	19.02646773	5.881549835
  490	114	2	1	10.85501957	14.28942013	13.2386198
  491	115	2	1	11.58631992	2.420350075	3.891839981
  492	116	2	1	11.58631992	19.64138775	3.891839981
  493	117	2	1	11.86991978	0.537060022	15.50821972
  494	118	2	1	11.86991978	17.7580977	15.50821972
  495	119	2	1	11.00271988	8.935580254	3.177030087
  496	120	2	1	11.20952034	14.49962044	3.84017992
  497	121	2	1	10.95411968	12.92271996	7.00951004
  498	122	2	1	11.02071953	15.44672012	16.70550767
  499	123	2	1	13.01342011	12.02812004	10.34020042
  500	124	2	1	12.77241993	7.794630051	12.45812035
  501	125	2	1	11.73112011	6.09815979	9.194179535
  502	126	2	1	12.46942043	7.973279953	16.42551767
  503	127	2	1	12.25811958	12.38111973	13.27071953
  504	128	2	1	12.27731991	5.485720158	13.04001999
  505	129	2	1	13.11231995	4.443930149	14.97852039
  506	130	2	1	12.79841995	9.858429909	4.885429859
  507	131	2	1	13.04522038	11.68832016	15.16761971
  508	132	2	1	13.90071964	2.967000008	9.690699577
  509	133	2	1	13.90071964	20.18803768	9.690699577
  510	134	2	1	12.78322029	6.298699856	5.534870148
  511	135	2	1	14.10221958	7.481019974	1.554180026
  512	136	2	1	14.10221958	7.481019974	18.7752177
  513	137	2	1	14.58012009	2.366400003	6.54279995
  514	138	2	1	14.58012009	19.58743768	6.54279995
  515	139	2	1	13.23871994	14.82431984	12.6089201
  516	140	2	1	13.34932041	13.23311997	7.361460209
  517	141	2	1	14.86052036	15.06682015	0.442030013
  518	142	2	1	14.86052036	15.06682015	17.66306769
  519	143	2	1	13.4662199	14.15052033	3.57020998
  520	144	2	1	13.6999197	10.36408043	12.54942036
  521	145	2	1	14.1157198	2.754570007	15.9492197
  522	146	2	1	14.1157198	19.97560768	15.9492197
  523	147	2	1	15.11511993	7.590330124	8.775540352
  524	148	2	1	14.38801956	13.72992039	11.04852009
  525	149	2	1	14.82511997	8.206850052	14.17251968
  526	150	2	1	14.71901989	14.94511986	6.702459812
  527	151	2	1	15.68931961	5.914509773	0.995710015
  528	152	2	1	15.68931961	5.914509773	18.21674769
  529	153	2	1	14.4839201	1.434620023	10.55512047
  530	154	2	1	14.4839201	18.6556577	10.55512047
  531	155	2	1	14.72451973	3.632050037	11.65172005
  532	156	2	1	14.4037199	13.27352047	15.99141979
  533	157	2	1	15.74081993	10.90312004	1.828080058
  534	158	2	1	15.74081993	10.90312004	19.04911773
  535	159	2	1	14.80902004	6.119339943	4.64700985
  536	160	2	1	15.2478199	12.12022018	6.846509934
  537	161	2	1	15.4282198	3.761080027	5.172510147
  538	162	2	1	15.33672047	13.10951996	3.366250038
  539	163	2	1	15.84282017	7.359970093	10.88222027
  540	164	2	1	15.35072041	6.653920174	12.94262028
  541	165	2	1	15.7176199	14.6344204	14.50282002
  542	166	2	1	15.70582008	1.31140995	12.60101986
  543	167	2	1	15.70582008	18.53244762	12.60101986
  544	168	2	1	15.83012009	5.781939983	7.595479965
  545	169	2	1	16.19382095	6.412439823	15.43782044
  546	170	2	1	17.95975767	11.28802013	14.5080204
  547	171	2	1	18.64637773	10.25177002	12.41152
  548	172	2	1	17.70788767	4.063300133	8.859239578
  549	173	2	1	18.18487768	0.204019994	8.525279999
  550	174	2	1	18.18487768	17.42505767	8.525279999
  551	175	2	1	17.84284769	2.640130043	14.07042027
  552	176	2	1	18.79653769	13.51832008	10.88202
  553	177	2	1	18.70044773	15.02071953	6.710959911
  554	178	2	1	19.25290756	7.305419922	5.102290154
  555	179	2	1	18.02876769	10.85231972	6.704699993
  556	180	2	1	18.49471765	8.365670204	10.95011997
  557	181	2	1	18.46428769	2.988359928	3.257550001
  558	182	2	1	18.46428769	20.2093976	3.257550001
  559	183	2	1	18.46428769	2.988359928	20.47858768
  560	184	2	1	18.46428769	20.2093976	20.47858768
  561	185	2	1	18.79740768	14.8823204	13.68432045
  562	186	2	1	19.41938763	10.50362015	8.515370369
  563	187	2	1	20.44901757	1.855970025	16.31201935
  564	188	2	1	20.44901757	19.0770077	16.31201935
  565	1	3	-8	0.548749983	11.59712029	15.40571976
  566	2	3	-8	0.726390004	10.84722042	12.76902008
  567	3	3	-8	0.803900003	3.54885006	9.661970139
  568	4	3	-8	0.871389985	0.582629979	9.444769859
  569	5	3	-8	0.871389985	17.80366765	9.444769859
  570	6	3	-8	0.888800025	3.548719883	14.41602039
  571	7	3	-8	1.027870059	12.71312046	10.7801199
  572	8	3	-8	1.174409986	15.94902039	6.944990158
  573	9	3	-8	1.601050019	6.440639973	5.324160099
  574	10	3	-8	1.764809966	10.56252003	6.723559856
  575	11	3	-8	2.074779987	8.853919983	11.30541992
  576	12	3	-8	2.126610041	2.861829996	2.828510046
  577	13	3	-8	2.126610041	20.08286767	2.828510046
  578	14	3	-8	2.126610041	2.861829996	20.04954772
  579	15	3	-8	2.126610041	20.08286767	20.04954772
  580	16	3	-8	2.425390005	13.4261198	6.172160149
  581	17	3	-8	2.532870054	14.64962006	13.88731957
  582	18	3	-8	2.609060049	4.423110008	12.10781956
  583	19	3	-8	2.627229929	8.712920189	4.678050041
  584	20	3	-8	2.640820026	10.59821987	9.350600243
  585	21	3	-8	2.716660023	2.705970049	16.52359767
  586	22	3	-8	2.716660023	19.92700772	16.52359767
  587	23	3	-8	2.787270069	13.62831974	3.287800074
  588	24	3	-8	2.81092	8.556489945	1.896299958
  589	25	3	-8	2.81092	8.556489945	19.11733763
  590	26	3	-8	2.973289967	6.929049969	16.31702042
  591	27	3	-8	3.117880106	14.39132023	11.3249197
  592	28	3	-8	3.152760029	12.28372002	15.38072014
  593	29	3	-8	3.362289906	0.772650003	5.692450047
  594	30	3	-8	3.362289906	17.99368768	5.692450047
  595	31	3	-8	3.446670055	11.50741959	1.625570059
  596	32	3	-8	3.446670055	11.50741959	18.84660773
  597	33	3	-8	3.490999937	0.354290009	10.14692974
  598	34	3	-8	3.490999937	17.57532768	10.14692974
  599	35	3	-8	3.737159967	16.1439209	2.030090094
  600	36	3	-8	3.737159967	16.1439209	19.25112777
  601	37	3	-8	3.996380091	16.57910767	15.74962044
  602	38	3	-8	4.059770107	6.815629959	12.05142021
  603	39	3	-8	4.353390217	6.372159958	7.664959908
  604	40	3	-8	4.371109963	8.539019585	14.33981991
  605	41	3	-8	4.497960091	2.750070095	11.53382015
  606	42	3	-8	4.497960091	19.97110777	11.53382015
  607	43	3	-8	4.623189926	4.759309769	15.84632015
  608	44	3	-8	4.65155983	2.914239883	3.428719997
  609	45	3	-8	4.65155983	20.13527756	3.428719997
  610	46	3	-8	4.72837019	3.385689974	6.163269997
  611	47	3	-8	5.007420063	16.35972023	7.859819889
  612	48	3	-8	5.066359997	11.2325201	14.09552002
  613	49	3	-8	5.128970146	13.67381954	6.858170033
  614	50	3	-8	5.161570072	11.41012001	8.8125
  615	51	3	-8	5.396299839	12.72681999	11.80531979
  616	52	3	-8	5.611889839	7.821640015	4.756989956
  617	53	3	-8	5.834469795	3.044529915	13.95172024
  618	54	3	-8	6.05092001	10.37261963	1.344810009
  619	55	3	-8	6.05092001	10.37261963	18.56584768
  620	56	3	-8	6.094799995	6.398089886	9.986260414
  621	57	3	-8	6.352479935	0.723909974	3.330840111
  622	58	3	-8	6.352479935	17.94494765	3.330840111
  623	59	3	-8	6.485579968	4.289569855	1.602920055
  624	60	3	-8	6.485579968	4.289569855	18.82395773
  625	61	3	-8	6.514130116	7.842520237	15.95541954
  626	62	3	-8	6.61796999	3.866420031	10.51161957
  627	63	3	-8	6.788000107	0.503050029	15.31912041
  628	64	3	-8	6.788000107	17.7240877	15.31912041
  629	65	3	-8	7.271860123	4.828790188	4.596059799
  630	66	3	-8	7.387969971	13.10801983	5.527589798
  631	67	3	-8	7.545239925	3.390399933	7.72055006
  632	68	3	-8	7.640120029	16.19802094	12.84512043
  633	69	3	-8	7.759419918	0.437409997	7.951340199
  634	70	3	-8	7.759419918	17.65844767	7.951340199
  635	71	3	-8	7.768459797	1.95551002	1.10571003
  636	72	3	-8	7.768459797	19.17654769	1.10571003
  637	73	3	-8	7.768459797	1.95551002	18.3267477
  638	74	3	-8	7.768459797	19.17654769	18.3267477
  639	75	3	-8	7.799389839	11.23482037	3.324419975
  640	76	3	-8	7.91369009	4.140029907	12.95411968
  641	77	3	-8	7.918049812	6.543839932	1.512930036
  642	78	3	-8	7.918049812	6.543839932	18.73396771
  643	79	3	-8	8.060110092	15.79712009	5.24146986
  644	80	3	-8	8.114819527	6.368969917	14.31861973
  645	81	3	-8	8.12362957	11.67541981	14.71922016
  646	82	3	-8	8.123740196	9.831159592	7.971920013
  647	83	3	-8	8.496069908	7.507369995	9.637129784
  648	84	3	-8	8.730620384	13.60762024	12.7580204
  649	85	3	-8	9.040610313	12.87172031	0.902890027
  650	86	3	-8	9.040610313	12.87172031	18.1239277
  651	87	3	-8	9.143670082	16.32781982	10.49042034
  652	88	3	-8	9.230939865	15.58071995	0.853559971
  653	89	3	-8	9.230939865	15.58071995	18.07459765
  654	90	3	-8	9.263589859	12.54102039	7.487510204
  655	91	3	-8	9.373950005	7.707230091	12.15692043
  656	92	3	-8	9.573989868	9.335709572	5.441239834
  657	93	3	-8	9.799550057	13.80412006	10.19773006
  658	94	3	-8	9.826439858	3.642090082	6.460680008
  659	95	3	-8	10.00465012	7.57585001	3.319149971
  660	96	3	-8	10.06649017	5.616630077	16.30232048
  661	97	3	-8	10.26998997	2.822040081	0.741999984
  662	98	3	-8	10.26998997	20.04307776	0.741999984
  663	99	3	-8	10.26998997	2.822040081	17.96303766
  664	100	3	-8	10.26998997	20.04307776	17.96303766
  665	101	3	-8	10.27388954	16.01122093	3.543190002
  666	102	3	-8	10.33602047	2.208590031	10.41501999
  667	103	3	-8	10.33602047	19.42962771	10.41501999
  668	104	3	-8	10.34224987	2.88970995	13.00131989
  669	105	3	-8	10.34224987	20.11074762	13.00131989
  670	106	3	-8	10.37082005	9.819319725	13.92471981
  671	107	3	-8	10.43171978	4.613959789	9.020339966
  672	108	3	-8	11.17901993	9.75537014	8.103580475
  673	109	3	-8	11.33771992	11.84912014	1.700109959
  674	110	3	-8	11.33771992	11.84912014	18.92114763
  675	111	3	-8	11.47212029	5.35051012	4.800250053
  676	112	3	-8	11.54751968	1.794849992	5.4134202
  677	113	3	-8	11.54751968	19.01588767	5.4134202
  678	114	3	-8	11.69421959	14.21401978	13.69312
  679	115	3	-8	11.7023201	2.964699984	3.099100113
  680	116	3	-8	11.7023201	20.18573766	3.099100113
  681	117	3	-8	11.72702026	1.433179975	15.13601971
  682	118	3	-8	11.72702026	18.65421765	15.13601971
  683	119	3	-8	11.74211979	9.619509697	3.207509995
  684	120	3	-8	11.76222038	13.70952034	3.869129896
  685	121	3	-8	11.78501988	13.2332201	6.6698699
  686	122	3	-8	11.84891987	15.33751965	16.23461914
  687	123	3	-8	12.11972046	12.07532024	9.899709702
  688	124	3	-8	12.13022041	7.217850208	12.01441956
  689	125	3	-8	12.16501999	6.961520195	9.123149872
  690	126	3	-8	12.3219204	7.597970009	15.55142021
  691	127	3	-8	12.56462002	11.47772026	13.46562004
  692	128	3	-8	12.58821964	4.619160175	13.37551975
  693	129	3	-8	13.16092014	4.133470058	15.96732044
  694	130	3	-8	13.19861984	9.56289959	5.710549831
  695	131	3	-8	13.27212048	11.82021999	16.09272003
  696	132	3	-8	13.41042042	2.099740028	9.483249664
  697	133	3	-8	13.41042042	19.3207777	9.483249664
  698	134	3	-8	13.66851997	6.889780045	5.627679825
  699	135	3	-8	13.73342037	8.364509583	1.373739958
  700	136	3	-8	13.73342037	8.364509583	18.59477763
  701	137	3	-8	13.76191998	1.778429985	6.749410152
  702	138	3	-8	13.76191998	18.99946766	6.749410152
  703	139	3	-8	13.92512035	14.95991993	11.96512032
  704	140	3	-8	14.31742001	13.35622025	7.614439964
  705	141	3	-8	14.35072041	15.74761963	0.953299999
  706	142	3	-8	14.35072041	15.74761963	18.17433767
  707	143	3	-8	14.36762047	14.51041985	3.619450092
  708	144	3	-8	14.37432003	9.761779785	12.14622021
  709	145	3	-8	14.64221954	1.902510047	15.86832047
  710	146	3	-8	14.64221954	19.12354772	15.86832047
  711	147	3	-8	14.65571976	6.896009922	8.090029717
  712	148	3	-8	14.7485199	13.08722019	10.36217022
  713	149	3	-8	14.76531982	7.223139763	14.44402027
  714	150	3	-8	14.79891968	15.74022007	6.158289909
  715	151	3	-8	14.80611992	5.912020207	1.46547997
  716	152	3	-8	14.80611992	5.912020207	18.68651764
  717	153	3	-8	14.99322033	0.73605001	11.03332043
  718	154	3	-8	14.99322033	17.95708768	11.03332043
  719	155	3	-8	15.02931976	4.123839855	10.88591957
  720	156	3	-8	15.29341984	13.74662018	15.92671967
  721	157	3	-8	15.39391995	10.53092003	1.007650018
  722	158	3	-8	15.39391995	10.53092003	18.22868769
  723	159	3	-8	15.57252026	5.620210171	4.081870079
  724	160	3	-8	15.60431957	11.36382008	6.308169842
  725	161	3	-8	15.83901978	3.263430119	5.882390022
  726	162	3	-8	15.85091972	12.24882031	3.291670084
  727	163	3	-8	15.91242027	8.184800148	10.24079037
  728	164	3	-8	15.93581963	6.35074997	12.15762043
  729	165	3	-8	16.05512047	15.00671959	13.62882042
  730	166	3	-8	16.25102043	1.212630034	13.41322041
  731	167	3	-8	16.25102043	18.43366771	13.41322041
  732	168	3	-8	16.64025767	5.232029915	7.482140064
  733	169	3	-8	16.87217766	5.914720058	15.92261982
  734	170	3	-8	17.76978766	11.59712029	15.40571976
  735	171	3	-8	17.94742768	10.84722042	12.76902008
  736	172	3	-8	18.02493768	3.54885006	9.661970139
  737	173	3	-8	18.09242766	0.582629979	9.444769859
  738	174	3	-8	18.09242766	17.80366765	9.444769859
  739	175	3	-8	18.1098377	3.548719883	14.41602039
  740	176	3	-8	18.24890773	12.71312046	10.7801199
  741	177	3	-8	18.39544766	15.94902039	6.944990158
  742	178	3	-8	18.82208769	6.440639973	5.324160099
  743	179	3	-8	18.98584764	10.56252003	6.723559856
  744	180	3	-8	19.29581766	8.853919983	11.30541992
  745	181	3	-8	19.34764772	2.861829996	2.828510046
  746	182	3	-8	19.34764772	20.08286767	2.828510046
  747	183	3	-8	19.34764772	2.861829996	20.04954772
  748	184	3	-8	19.34764772	20.08286767	20.04954772
  749	185	3	-8	19.75390773	14.64962006	13.88731957
  750	186	3	-8	19.8618577	10.59821987	9.350600243
  751	187	3	-8	19.9376977	2.705970049	16.52359767
  752	188	3	-8	19.9376977	19.92700772	16.52359767

Bonds

1	1	1	565
2	1	2	566
3	1	3	567
4	1	4	568
5	1	5	569
6	1	6	570
7	1	7	571
8	1	8	572
9	1	9	573
10	1	10	574
11	1	11	575
12	1	12	576
13	1	13	577
14	1	14	578
15	1	15	579
16	1	16	580
17	1	17	581
18	1	18	582
19	1	19	583
20	1	20	584
21	1	21	585
22	1	22	586
23	1	23	587
24	1	24	588
25	1	25	589
26	1	26	590
27	1	27	591
28	1	28	592
29	1	29	593
30	1	30	594
31	1	31	595
32	1	32	596
33	1	33	597
34	1	34	598
35	1	35	599
36	1	36	600
37	1	37	601
38	1	38	602
39	1	39	603
40	1	40	604
41	1	41	605
42	1	42	606
43	1	43	607
44	1	44	608
45	1	45	609
46	1	46	610
47	1	47	611
48	1	48	612
49	1	49	613
50	1	50	614
51	1	51	615
52	1	52	616
53	1	53	617
54	1	54	618
55	1	55	619
56	1	56	620
57	1	57	621
58	1	58	622
59	1	59	623
60	1	60	624
61	1	61	625
62	1	62	626
63	1	63	627
64	1	64	628
65	1	65	629
66	1	66	630
67	1	67	631
68	1	68	632
69	1	69	633
70	1	70	634
71	1	71	635
72	1	72	636
73	1	73	637
74	1	74	638
75	1	75	639
76	1	76	640
77	1	77	641
78	1	78	642
79	1	79	643
80	1	80	644
81	1	81	645
82	1	82	646
83	1	83	647
84	1	84	648
85	1	85	649
86	1	86	650
87	1	87	651
88	1	88	652
89	1	89	653
90	1	90	654
91	1	91	655
92	1	92	656
93	1	93	657
94	1	94	658
95	1	95	659
96	1	96	660
97	1	97	661
98	1	98	662
99	1	99	663
100	1	100	664
101	1	101	665
102	1	102	666
103	1	103	667
104	1	104	668
105	1	105	669
106	1	106	670
107	1	107	671
108	1	108	672
109	1	109	673
110	1	110	674
111	1	111	675
112	1	112	676
113	1	113	677
114	1	114	678
115	1	115	679
116	1	116	680
117	1	117	681
118	1	118	682
119	1	119	683
120	1	120	684
121	1	121	685
122	1	122	686
123	1	123	687
124	1	124	688
125	1	125	689
126	1	126	690
127	1	127	691
128	1	128	692
129	1	129	693
130	1	130	694
131	1	131	695
132	1	132	696
133	1	133	697
134	1	134	698
135	1	135	699
136	1	136	700
137	1	137	701
138	1	138	702
139	1	139	703
140	1	140	704
141	1	141	705
142	1	142	706
143	1	143	707
144	1	144	708
145	1	145	709
146	1	146	710
147	1	147	711
148	1	148	712
149	1	149	713
150	1	150	714
151	1	151	715
152	1	152	716
153	1	153	717
154	1	154	718
155	1	155	719
156	1	156	720
157	1	157	721
158	1	158	722
159	1	159	723
160	1	160	724
161	1	161	725
162	1	162	726
163	1	163	727
164	1	164	728
165	1	165	729
166	1	166	730
167	1	167	731
168	1	168	732
169	1	169	733
170	1	170	734
171	1	171	735
172	1	172	736
173	1	173	737
174	1	174	738
175	1	175	739
176	1	176	740
177	1	177	741
178	1	178	742
179	1	179	743
180	1	180	744
181	1	181	745
182	1	182	746
183	1	183	747
184	1	184	748
185	1	185	749
186	1	186	750
187	1	187	751
188	1	188	752
