LAMMPS data file via write_data, version 29 Sep 2021, timestep = 999

992 atoms
3 atom types
248 bonds
1 bond types

0 41.7 xlo xhi
0 7.35 ylo yhi
0 41.7 zlo zhi
0 0 0 xy xz yz

Masses

1 16
2 2
3 16

Atoms # full

1 1 1 6 1.999298386681192 1.3606791545655936 11.869348915363444 0 0 0
2 2 1 6 7.7762539824397345 0.6963857826823857 7.561542084208223 0 0 0
3 3 1 6 6.679055548578179 0.11654940802746087 15.523051732024348 0 0 0
4 4 1 6 0.11360431393404254 1.1884294630660137 10.086459882202291 0 0 0
5 5 1 6 18.523188057548406 6.214898311574272 9.079417879470268 0 -1 0
6 6 1 6 3.2232126188938426 0.17867806440891845 4.382761822842718 0 0 0
7 7 1 6 17.339049384185582 0.31145153905198153 11.681139109213225 0 0 0
8 8 1 6 3.4695762105029604 0.9443870147712473 7.349428991311188 0 0 0
9 9 1 6 16.214690711829338 1.0008431816065442 13.820338594565749 0 0 0
10 10 1 6 10.926206000075831 1.130017481987887 15.274533226145632 0 0 0
11 11 1 6 14.15916066023642 1.279213868239737 5.936718318367816 0 0 0
12 12 1 6 12.207388544792193 1.0264412653234163 3.5906163907801925 0 0 0
13 13 1 6 13.849483032789907 0.5889067154437243 15.683239031012592 0 0 0
14 14 1 6 7.156714758749042 2.4279005249269696 40.977584517082406 0 0 -1
15 15 1 6 6.733661294093777 1.816751512664968 17.514624767920267 0 0 0
16 16 1 6 12.837043565991143 2.7029335028394894 8.119465750042838 0 0 0
17 17 1 6 11.56126583100064 0.9919870388768414 9.922743403437003 0 0 0
18 18 1 6 2.2395671632518197 4.350933712422725 15.644890668928408 0 0 0
19 19 1 6 19.831354443425095 2.537006595767658 15.585297830561112 0 0 0
20 20 1 6 4.655672587094203 2.291493550021073 11.734048203066445 0 0 0
21 21 1 6 10.048763502518584 2.3032538351740204 0.00788629647004282 0 0 0
22 22 1 6 10.549672897765172 3.833398750094712 16.412509544782104 0 0 0
23 23 1 6 0.045769046655782956 3.2205747877286783 1.1001765764454585 0 0 0
24 24 1 6 3.6194193409356057 1.2323282804361113 20.99605707051075 0 0 0
25 25 1 6 19.290148293201483 3.496083748979632 0.8239930772405746 0 0 0
26 26 1 6 17.916719594965883 4.406223630530915 18.49357305013374 0 0 0
27 27 1 6 11.222727761793962 2.090722668274832 12.406502830401806 0 0 0
28 28 1 6 3.307986069186923 1.492231786043934 1.7338681906782762 0 0 0
29 29 1 6 11.408298491514392 3.5512193258674403 2.270058252501019 0 0 0
30 30 1 6 6.555115847125066 2.8105487638375672 14.224680414249743 0 0 0
31 31 1 6 17.32942306027478 2.2532947632889737 5.872744479101477 0 0 0
32 32 1 6 4.095917847801249 3.9302138547621737 7.199629308373473 0 0 0
33 33 1 6 7.029753945472499 3.5563407112133776 7.686760954140004 0 0 0
34 34 1 6 0.8150214578867958 3.4757673370185977 13.570799242686386 0 0 0
35 35 1 6 18.37333610979784 4.793275825107157 15.508601691941742 0 0 0
36 36 1 6 40.265373476007476 3.4884195026873077 10.93035771380108 -1 0 0
37 37 1 6 17.00327459747093 1.6377111495828096 9.241946475384552 0 0 0
38 38 1 6 9.348158003811918 4.871679576094589 7.037576404167173 0 0 0
39 39 1 6 6.352214872155654 3.8969582813117194 10.332705833586592 0 0 0
40 40 1 6 13.974256559264216 6.582720119013038 8.879568719615671 0 0 0
41 41 1 6 13.327539795495712 3.2828683134657353 16.522171320827905 0 0 0
42 42 1 6 8.273926391660787 3.753963736887429 12.18063218915275 0 0 0
43 43 1 6 5.105516939881393 3.719598403995751 0.9853493267047464 0 0 0
44 44 1 6 6.86499724594131 4.6469913396971245 17.26174238258159 0 0 0
45 45 1 6 0.9997814063758542 4.76347264311747 11.071229638721658 0 0 0
46 46 1 6 11.368498995857609 5.149428095492095 9.031752333652518 0 0 0
47 47 1 6 13.05889018421298 3.7482087178559182 13.528231268802053 0 0 0
48 48 1 6 5.085043142842957 5.152679039295254 15.326073559133832 0 0 0
49 49 1 6 5.624193645597555 5.894662862287264 3.711297845259096 0 0 0
50 50 1 6 16.004947512487092 4.392758432137765 9.067328198229161 0 0 0
51 51 1 6 10.610865156892602 6.0936062097359205 3.8398388967939523 0 0 0
52 52 1 6 9.269192884282996 6.2716280477537865 16.378977577768325 0 0 0
53 53 1 6 17.113002089669372 4.653632664041826 4.478755008597157 0 0 0
54 54 1 6 16.679869766167517 4.475926027407953 1.5613582920248914 0 0 0
55 55 1 6 14.96951584362826 5.958089118676178 17.16056475008141 0 0 0
56 56 1 6 18.618574852531587 0.2648173842328581 15.777630015504666 0 1 0
57 57 1 6 15.909420648747078 4.537949328646181 14.155092615323525 0 0 0
58 58 1 6 8.632044248282833 6.398526799654933 13.290933890244734 0 0 0
59 59 1 6 3.2391727355018487 6.3017221145110645 9.209093753245824 0 0 0
60 60 1 6 6.028928043150599 6.367157239183271 9.133741783520412 0 0 0
61 61 1 6 40.85816565326268 4.6054858004600385 3.1807892278729484 -1 0 0
62 62 1 6 16.614881863138717 6.718616798213673 6.717262263343115 0 0 0
63 1 2 1 2.2976193318020006 0.49007181439584935 12.331413685775935 0 0 0
64 2 2 1 7.602104316672222 1.6408264998957678 7.617756251346991 0 0 0
65 3 2 1 6.948728286194187 0.004176711648269926 14.607838803839327 0 0 0
66 4 2 1 0.8934647064705726 1.1774220335924819 10.675039655487502 0 0 0
67 5 2 1 19.417947673311932 6.488529800011084 9.348334925061852 0 -1 0
68 6 2 1 2.9984445631844867 0.7754000603156916 3.6196124843936746 0 0 0
69 7 2 1 16.92132080210421 0.7082612324507732 10.880749661850398 0 0 0
70 8 2 1 4.180399459850778 1.6122456381464898 7.360083245424023 0 0 0
71 9 2 1 16.071767465719148 1.9818732996068646 13.78741599817446 0 0 0
72 10 2 1 11.797471566069527 0.7946694713464625 15.569964787903254 0 0 0
73 11 2 1 14.707821528634982 0.7853416852361512 6.545051885766038 0 0 0
74 12 2 1 11.75521182881502 0.15549905618982734 3.6975094155441623 0 0 0
75 13 2 1 14.751109112455719 0.5588415178513897 15.252846594383636 0 0 0
76 14 2 1 8.14772688712599 2.607967705599593 41.050567494003076 0 0 -1
77 15 2 1 7.323238014690017 1.7575953813336866 18.303173746652778 0 0 0
78 16 2 1 13.347897190141083 2.653133793664266 7.243630367969559 0 0 0
79 17 2 1 11.082083510045328 0.3314553066785776 9.42045180477935 0 0 0
80 18 2 1 1.6864009548144665 3.904119279062356 15.00312158570148 0 0 0
81 19 2 1 19.015894495980973 3.121491423936183 15.350374016317227 0 0 0
82 20 2 1 5.322124732141598 2.1576263082429694 12.489786180229892 0 0 0
83 21 2 1 10.758800814870524 2.7643733047588155 0.5289675908958841 0 0 0
84 22 2 1 11.334438274045674 3.9457586214104188 16.953833260848278 0 0 0
85 23 2 1 0.9194355820293402 3.3808141841929356 0.6142926432529217 0 0 0
86 24 2 1 3.943262168972121 1.1601845763936611 21.919169779614883 0 0 0
87 25 2 1 18.86211316796021 3.406099192629474 41.68025746401519 0 0 -1
88 26 2 1 17.937578595079103 3.4237862765314597 18.558220627817775 0 0 0
89 27 2 1 11.071768424181995 1.4041547487428 13.058881502763391 0 0 0
90 28 2 1 3.1611484194794235 1.503407940169553 0.8060512058954912 0 0 0
91 29 2 1 12.3017081454389 3.81326968159125 1.921440711257189 0 0 0
92 30 2 1 6.115590723726638 3.5972122598829506 14.604087545135728 0 0 0
93 31 2 1 17.58941556008346 2.6588516747207107 6.714823732198293 0 0 0
94 32 2 1 3.238885279420999 4.176904576189364 6.817686544060997 0 0 0
95 33 2 1 6.8524465608226475 3.7026410591800842 8.67924425528743 0 0 0
96 34 2 1 0.49742012636887656 3.97031053642134 12.761681635874133 0 0 0
97 35 2 1 17.515724343113163 4.7318866791773475 15.024638688551322 0 0 0
98 36 2 1 40.610183513271224 2.5720667422472876 10.783266144665706 -1 0 0
99 37 2 1 17.886670720667983 1.9881721093915863 8.969169899910325 0 0 0
100 38 2 1 9.67966315820308 3.9999631424493667 6.690286687567214 0 0 0
101 39 2 1 6.226124032757705 4.824774630362815 10.026393475747875 0 0 0
102 40 2 1 13.719693471554967 0.1292947716163737 9.245674746355096 0 1 0
103 41 2 1 13.778327962056602 4.155226819223464 16.66271422759313 0 0 0
104 42 2 1 9.17723760399033 3.4086820698253177 12.062986005892354 0 0 0
105 43 2 1 5.227941275572593 4.444796627558954 1.6032710431033415 0 0 0
106 44 2 1 6.719375480823314 4.7518771708463925 18.2387999038531 0 0 0
107 45 2 1 1.73289799278934 4.163091344320655 11.228874238464737 0 0 0
108 46 2 1 11.107877794494273 4.545499750070943 9.743389723985375 0 0 0
109 47 2 1 12.48033771958473 2.9868130682914664 13.197402464634951 0 0 0
110 48 2 1 4.109944642820271 5.210219779832009 15.416933346798292 0 0 0
111 49 2 1 4.7304228562881505 6.23353367632045 3.8349705773123692 0 0 0
112 50 2 1 16.327154167123098 4.404083613859614 8.177390853928163 0 0 0
113 51 2 1 10.821316559032006 5.306264009599267 3.311687987414458 0 0 0
114 52 2 1 9.797791273169354 5.468903834958231 16.40001340790065 0 0 0
115 53 2 1 16.86616534825819 5.402226428279419 5.044852488472956 0 0 0
116 54 2 1 17.166957038188723 3.6094725242624053 1.6005801491294043 0 0 0
117 55 2 1 14.511408545070962 6.690507909164244 16.753053259160332 0 0 0
118 56 2 1 19.310453075903734 0.9598854724090794 15.899516298649253 0 1 0
119 57 2 1 15.31457598370594 4.991671915246117 14.749810145056788 0 0 0
120 58 2 1 8.839370770063782 6.146730589005086 14.220295562074279 0 0 0
121 59 2 1 2.4285552860972435 6.089797670041783 9.728559121840535 0 0 0
122 60 2 1 5.094222816849157 6.628213353228406 9.130979403461641 0 0 0
123 61 2 1 41.41519837780483 5.380101371492572 3.3211453938844415 -1 0 0
124 62 2 1 17.058400394870056 6.627104208932762 7.580365829590678 0 0 0
125 1 2 1 2.89884126578168 1.6619356259436038 11.58197288423271 0 0 0
126 2 2 1 8.212585862870858 0.49110401857802916 6.754870173106594 0 0 0
127 3 2 1 5.993775268601669 6.734220792119797 15.51587970854312 0 -1 0
128 4 2 1 0.4354342663012395 1.4909264111857208 9.220073401267863 0 0 0
129 5 2 1 17.98042344672979 6.561410499308445 9.822034654367965 0 -1 0
130 6 2 1 2.4795655082969503 6.929268116562034 4.436307484001641 0 -1 0
131 7 2 1 18.24165031451315 0.7010295932801209 11.647411176036744 0 0 0
132 8 2 1 3.522348106629857 0.5803405727075476 6.478731578941799 0 0 0
133 9 2 1 16.43132996342665 0.7381287192378847 12.907601383671732 0 0 0
134 10 2 1 10.309841418925558 0.4717360368628203 15.670074203094927 0 0 0
135 11 2 1 14.802655256265965 2.028527357990833 5.7498885680289415 0 0 0
136 12 2 1 12.835639683696334 1.118032046584046 4.310911237669653 0 0 0
137 13 2 1 13.84299689701045 1.412872499186388 16.228862300377187 0 0 0
138 14 2 1 7.035563686088774 2.057796636511703 40.05717881759075 0 0 -1
139 15 2 1 6.946310260430724 0.9987413221917752 16.9794818534352 0 0 0
140 16 2 1 12.448652863417204 3.6222138065884724 8.149381381854393 0 0 0
141 17 2 1 11.948327577263925 1.6219724362110626 9.25726556923298 0 0 0
142 18 2 1 1.6995807722356517 4.913548689148901 16.215160945306643 0 0 0
143 19 2 1 20.457391916521203 2.739365931105861 14.85556551870181 0 0 0
144 20 2 1 5.175093078142067 2.907509873554479 11.1635243910091 0 0 0
145 21 2 1 9.887094981606408 1.4929340350398517 0.5881098712472718 0 0 0
146 22 2 1 10.665432101532607 2.862883102683174 16.14317752962791 0 0 0
147 23 2 1 0.21815634585584756 2.496895660618369 1.7539907125552554 0 0 0
148 24 2 1 4.4532001597864985 1.3998511760809786 20.51671721897889 0 0 0
149 25 2 1 19.504720755080754 4.398800620909489 1.0795772625676958 0 0 0
150 26 2 1 18.685412086225742 4.4875835435650995 17.92375602476803 0 0 0
151 27 2 1 11.375014374305012 1.6717001900780466 11.540761752380934 0 0 0
152 28 2 1 4.089256910697 2.1063866054996736 1.7914106610856109 0 0 0
153 29 2 1 11.590063075437033 2.7612838125844097 2.837037346977577 0 0 0
154 30 2 1 6.448842693582833 2.0911231960138514 14.900663249310288 0 0 0
155 31 2 1 17.238394115059435 3.020225906174139 5.276912431977874 0 0 0
156 32 2 1 4.207335671630284 4.698120699103545 7.802849438572985 0 0 0
157 33 2 1 6.221364615189068 3.7829562960355867 7.251605843948091 0 0 0
158 34 2 1 1.246608483244487 2.715487902320575 13.119910240926288 0 0 0
159 35 2 1 18.571294574962394 5.719949467589128 15.675984610886593 0 0 0
160 36 2 1 39.545511367136285 3.4932121589765117 10.257769168017635 -1 0 0
161 37 2 1 16.452394695754684 2.4332853979816385 9.25556704315896 0 0 0
162 38 2 1 8.397904927788103 4.72943354984019 7.28412093745816 0 0 0
163 39 2 1 7.199737829186947 3.8749343362102358 10.865554771200719 0 0 0
164 40 2 1 13.222261234406208 6.065298277737613 9.241534225283898 0 0 0
165 41 2 1 13.099977204615422 3.3321470827717956 15.544219254528342 0 0 0
166 42 2 1 7.838041955274028 3.27703680003423 12.923213122543853 0 0 0
167 43 2 1 5.924103438465408 3.383136549142187 0.5780787526421001 0 0 0
168 44 2 1 7.00606224086398 3.624320824649962 17.210605513559198 0 0 0
169 45 2 1 0.29480679288770684 4.3099606793381335 10.66064649826341 0 0 0
170 46 2 1 10.517376246965789 5.1025234898846525 8.483870114897796 0 0 0
171 47 2 1 12.489521669616067 4.544714778315646 13.494335660743273 0 0 0
172 48 2 1 5.528472617401785 4.912458759189527 16.18675234638799 0 0 0
173 49 2 1 6.107437683336116 6.625395725446095 3.2667530341785738 0 0 0
174 50 2 1 15.316268970228522 5.10131169168305 9.069480143332544 0 0 0
175 51 2 1 10.031541582954414 5.823837007435035 4.58244577774062 0 0 0
176 52 2 1 8.453023299423267 6.080513226157417 16.887268357331386 0 0 0
177 53 2 1 16.913255135401673 4.848964610475196 3.519647292892299 0 0 0
178 54 2 1 17.096113475997544 5.045792218282758 0.891186137835963 0 0 0
179 55 2 1 15.319293852940515 6.228005509929332 18.029811351902083 0 0 0
180 56 2 1 17.97248479253076 0.7483662728288031 15.191832877621197 0 1 0
181 57 2 1 15.393229094822914 4.507913029160449 13.36012054472013 0 0 0
182 58 2 1 8.46704968877371 5.544387479066551 12.92161599328029 0 0 0
183 59 2 1 3.090748445594703 7.148546000973682 8.724972832394787 0 0 0
184 60 2 1 6.58272022983986 7.0323747392384135 8.722825155939246 0 0 0
185 61 2 1 41.00349561063559 4.320397499172987 2.2069998173679246 -1 0 0
186 62 2 1 16.974052195969982 0.17350444441192933 6.328243554582778 0 1 0
187 1 3 -8 1.999298386681192 1.3606791545655936 11.869348915363444 0 0 0
188 2 3 -8 7.7762539824397345 0.6963857826823857 7.561542084208223 0 0 0
189 3 3 -8 6.679055548578179 0.11654940802746087 15.523051732024348 0 0 0
190 4 3 -8 0.11360431393404254 1.1884294630660137 10.086459882202291 0 0 0
191 5 3 -8 18.523188057548406 6.214898311574272 9.079417879470268 0 -1 0
192 6 3 -8 3.2232126188938426 0.17867806440891845 4.382761822842718 0 0 0
193 7 3 -8 17.339049384185582 0.31145153905198153 11.681139109213225 0 0 0
194 8 3 -8 3.4695762105029604 0.9443870147712473 7.349428991311188 0 0 0
195 9 3 -8 16.214690711829338 1.0008431816065442 13.820338594565749 0 0 0
196 10 3 -8 10.926206000075831 1.130017481987887 15.274533226145632 0 0 0
197 11 3 -8 14.15916066023642 1.279213868239737 5.936718318367816 0 0 0
198 12 3 -8 12.207388544792193 1.0264412653234163 3.5906163907801925 0 0 0
199 13 3 -8 13.849483032789907 0.5889067154437243 15.683239031012592 0 0 0
200 14 3 -8 7.156714758749042 2.4279005249269696 40.977584517082406 0 0 -1
201 15 3 -8 6.733661294093777 1.816751512664968 17.514624767920267 0 0 0
202 16 3 -8 12.837043565991143 2.7029335028394894 8.119465750042838 0 0 0
203 17 3 -8 11.56126583100064 0.9919870388768414 9.922743403437003 0 0 0
204 18 3 -8 2.2395671632518197 4.350933712422725 15.644890668928408 0 0 0
205 19 3 -8 19.831354443425095 2.537006595767658 15.585297830561112 0 0 0
206 20 3 -8 4.655672587094203 2.291493550021073 11.734048203066445 0 0 0
207 21 3 -8 10.048763502518584 2.3032538351740204 0.00788629647004282 0 0 0
208 22 3 -8 10.549672897765172 3.833398750094712 16.412509544782104 0 0 0
209 23 3 -8 0.045769046655782956 3.2205747877286783 1.1001765764454585 0 0 0
210 24 3 -8 3.6194193409356057 1.2323282804361113 20.99605707051075 0 0 0
211 25 3 -8 19.290148293201483 3.496083748979632 0.8239930772405746 0 0 0
212 26 3 -8 17.916719594965883 4.406223630530915 18.49357305013374 0 0 0
213 27 3 -8 11.222727761793962 2.090722668274832 12.406502830401806 0 0 0
214 28 3 -8 3.307986069186923 1.492231786043934 1.7338681906782762 0 0 0
215 29 3 -8 11.408298491514392 3.5512193258674403 2.270058252501019 0 0 0
216 30 3 -8 6.555115847125066 2.8105487638375672 14.224680414249743 0 0 0
217 31 3 -8 17.32942306027478 2.2532947632889737 5.872744479101477 0 0 0
218 32 3 -8 4.095917847801249 3.9302138547621737 7.199629308373473 0 0 0
219 33 3 -8 7.029753945472499 3.5563407112133776 7.686760954140004 0 0 0
220 34 3 -8 0.8150214578867958 3.4757673370185977 13.570799242686386 0 0 0
221 35 3 -8 18.37333610979784 4.793275825107157 15.508601691941742 0 0 0
222 36 3 -8 40.265373476007476 3.4884195026873077 10.93035771380108 -1 0 0
223 37 3 -8 17.00327459747093 1.6377111495828096 9.241946475384552 0 0 0
224 38 3 -8 9.348158003811918 4.871679576094589 7.037576404167173 0 0 0
225 39 3 -8 6.352214872155654 3.8969582813117194 10.332705833586592 0 0 0
226 40 3 -8 13.974256559264216 6.582720119013038 8.879568719615671 0 0 0
227 41 3 -8 13.327539795495712 3.2828683134657353 16.522171320827905 0 0 0
228 42 3 -8 8.273926391660787 3.753963736887429 12.18063218915275 0 0 0
229 43 3 -8 5.105516939881393 3.719598403995751 0.9853493267047464 0 0 0
230 44 3 -8 6.86499724594131 4.6469913396971245 17.26174238258159 0 0 0
231 45 3 -8 0.9997814063758542 4.76347264311747 11.071229638721658 0 0 0
232 46 3 -8 11.368498995857609 5.149428095492095 9.031752333652518 0 0 0
233 47 3 -8 13.05889018421298 3.7482087178559182 13.528231268802053 0 0 0
234 48 3 -8 5.085043142842957 5.152679039295254 15.326073559133832 0 0 0
235 49 3 -8 5.624193645597555 5.894662862287264 3.711297845259096 0 0 0
236 50 3 -8 16.004947512487092 4.392758432137765 9.067328198229161 0 0 0
237 51 3 -8 10.610865156892602 6.0936062097359205 3.8398388967939523 0 0 0
238 52 3 -8 9.269192884282996 6.2716280477537865 16.378977577768325 0 0 0
239 53 3 -8 17.113002089669372 4.653632664041826 4.478755008597157 0 0 0
240 54 3 -8 16.679869766167517 4.475926027407953 1.5613582920248914 0 0 0
241 55 3 -8 14.96951584362826 5.958089118676178 17.16056475008141 0 0 0
242 56 3 -8 18.618574852531587 0.2648173842328581 15.777630015504666 0 1 0
243 57 3 -8 15.909420648747078 4.537949328646181 14.155092615323525 0 0 0
244 58 3 -8 8.632044248282833 6.398526799654933 13.290933890244734 0 0 0
245 59 3 -8 3.2391727355018487 6.3017221145110645 9.209093753245824 0 0 0
246 60 3 -8 6.028928043150599 6.367157239183271 9.133741783520412 0 0 0
247 61 3 -8 40.85816565326268 4.6054858004600385 3.1807892278729484 -1 0 0
248 62 3 -8 16.614881863138717 6.718616798213673 6.717262263343115 0 0 0
497 125 1 6 3.884112135027955 0.7899812698012677 30.848730190764385 0 0 0
498 126 1 6 8.948794257090352 1.3976445448981267 29.275650878395044 0 0 0
499 127 1 6 6.277069640844178 0.9368124721333251 35.72663675434659 0 0 0
500 128 1 6 41.51333532897609 6.847043791169859 33.005657671631226 -1 -1 0
501 129 1 6 19.19281965778078 0.38384162003035194 30.586961582189545 0 0 0
502 130 1 6 5.920776158726383 7.335957956727933 24.34022478638797 0 -1 0
503 131 1 6 14.658173627201759 1.6244008464273527 31.993915740664875 0 0 0
504 132 1 6 3.456998326515054 0.6497782765375563 28.088739804839854 0 0 0
505 133 1 6 17.74700733425245 3.442849840767049 34.16567778573226 0 0 0
506 134 1 6 10.262736755410028 0.91202162260939 36.14736260242867 0 0 0
507 135 1 6 13.661255769929845 1.4030096838952655 27.42857290117243 0 0 0
508 136 1 6 11.113934831678206 1.72140864994236 26.26088650894144 0 0 0
509 137 1 6 13.336078901101745 7.245766924294187 35.23739388641099 0 -1 0
510 138 1 6 7.898090808368335 1.9059981458433901 20.454749041730405 0 0 0
511 139 1 6 7.364462555081611 1.887457071012971 37.95913340714682 0 0 0
512 140 1 6 13.333577564291735 2.6664916719166607 29.88882207934153 0 0 0
513 141 1 6 10.760612330670511 1.2740410280122267 31.447362152768193 0 0 0
514 142 1 6 2.563721943497849 4.83060244275836 37.24649967184555 0 0 0
515 143 1 6 18.625059909401788 1.9469303098840052 39.02225901132656 0 0 0
516 144 1 6 4.256974897364646 3.5458525575205315 32.16399579487506 0 0 0
517 145 1 6 10.537811905727517 2.303772937544256 21.998293667565065 0 0 0
518 146 1 6 10.033728581871411 0.5333690434158513 39.05305140511437 0 0 0
519 147 1 6 3.5181974974694366 3.646910622945608 23.165310721959617 0 0 0
520 148 1 6 2.62146616302116 3.9100771174071913 0.03254095387834852 0 0 1
521 149 1 6 20.715163317234918 1.349089195625376 22.849040737118642 0 0 0
522 150 1 6 16.84705540366159 1.1510075204619832 40.99201394939728 0 0 0
523 151 1 6 10.444890458699133 2.5109553266455538 33.66815199422738 0 0 0
524 152 1 6 5.961578260441414 2.9207780041613702 24.670162277701596 0 0 0
525 153 1 6 11.20483401171167 3.709946868461781 24.198897619692218 0 0 0
526 154 1 6 5.869231703272084 3.4378624603353565 34.52127712611257 0 0 0
527 155 1 6 15.568923512397498 2.9265201104422927 26.695743661683803 0 0 0
528 156 1 6 5.139696169862246 2.627223660795524 27.1480994535521 0 0 0
529 157 1 6 7.385014334040633 3.426975263282302 28.654249500899173 0 0 0
530 158 1 6 1.6198051710476298 3.4380496479791525 35.22895868380952 0 0 0
531 159 1 6 17.728379439478207 3.8640936801264627 36.80625306948064 0 0 0
532 160 1 6 0.7313107086186738 2.854739518732782 30.57439709784665 0 0 0
533 161 1 6 19.904735657166533 2.8074583499268324 31.522252021782354 0 0 0
534 162 1 6 9.525992833727678 4.573745557274562 27.383428867617475 0 0 0
535 163 1 6 6.798831070622958 4.661557804508792 31.35515927069083 0 0 0
536 164 1 6 15.510132916543665 4.804970485499634 31.59995873664177 0 0 0
537 165 1 6 12.977174000547615 4.5360402772316455 38.38541961386285 0 0 0
538 166 1 6 8.464451838281724 4.2539756694939 33.85287173340203 0 0 0
539 167 1 6 6.400105472723157 4.433092482431891 20.237609151892787 0 0 0
540 168 1 6 5.7880893369669835 4.257299811301939 38.12791110745337 0 0 0
541 169 1 6 1.6636620412150078 4.694432444321796 32.73188778654779 0 0 0
542 170 1 6 11.714740329215 5.491283077304949 28.92601721799944 0 0 0
543 171 1 6 11.772839371922263 3.8856894739309853 36.076933179250375 0 0 0
544 172 1 6 4.788572604591895 6.236947302529073 36.35884410832657 0 0 0
545 173 1 6 7.771528348021826 5.041355447787472 24.18382806424664 0 0 0
546 174 1 6 18.51970304617574 4.819434882549998 29.772627402843817 0 0 0
547 175 1 6 9.934901820981919 6.474041677043578 25.400688528317957 0 0 0
548 176 1 6 9.83767451931182 5.530392212944406 37.906208367659026 0 0 0
549 177 1 6 16.066421293488688 4.705624130288937 24.733061476955108 0 0 0
550 178 1 6 17.660812299834845 4.993354508047918 21.871225847696874 0 0 0
551 179 1 6 13.961549377063356 5.085822607325123 0.20463437909858812 0 0 1
552 180 1 6 15.159554479578297 5.258215088041843 36.70736420466757 0 0 0
553 181 1 6 14.515804200506741 4.713648268457436 34.33162386370648 0 0 0
554 182 1 6 8.395364086795063 6.148037509382007 35.56720099608943 0 0 0
555 183 1 6 4.306982901444635 5.395108690132531 27.682089882467324 0 0 0
556 184 1 6 6.767622634828654 7.2494572207946115 30.150839954245207 0 0 0
557 185 1 6 40.436001694903794 4.01658087110464 24.631814578690115 -1 0 0
558 186 1 6 18.26994005305278 6.115395683875433 26.118849857955322 0 0 0
559 125 2 1 4.831449998437843 0.7204438669028076 30.987750825770647 0 0 0
560 126 2 1 8.472984829694104 2.2609731425255912 29.206497928790984 0 0 0
561 127 2 1 7.001768304666323 0.22050066112790379 35.498619408702645 0 0 0
562 128 2 1 0.5372543935919879 6.204261157312246 33.14996535738324 0 -1 0
563 129 2 1 19.88570903703276 7.262873799498224 31.052588373194013 0 -1 0
564 130 2 1 6.1434642897274845 0.9240301408959057 24.522326838174624 0 0 0
565 131 2 1 15.059616683775332 0.7944733473130564 31.753929882252677 0 0 0
566 132 2 1 3.5233100662762573 0.5417983518546228 29.090921026389317 0 0 0
567 133 2 1 18.553959339586264 3.420186541618413 33.636401523961005 0 0 0
568 134 2 1 11.10463854006469 0.5898552716126112 35.74825233918355 0 0 0
569 135 2 1 13.912471377252553 0.4711515252896244 27.43493117563673 0 0 0
570 136 2 1 10.778053892340674 0.8656610786663503 25.841873804193217 0 0 0
571 137 2 1 14.096760607043063 7.10881274376394 35.84388154354112 0 -1 0
572 138 2 1 8.605702412812933 2.172079180750489 21.046216328582645 0 0 0
573 139 2 1 8.31878413900182 1.703001022752041 37.890916252210815 0 0 0
574 140 2 1 13.371885480626592 2.0950612775162107 29.076735069725974 0 0 0
575 141 2 1 10.374801045545015 1.445534096905554 30.56503506105326 0 0 0
576 142 2 1 2.113142767362836 4.356013853909556 36.42922238674617 0 0 0
577 143 2 1 18.30163899983356 2.5241442199253195 38.25747141963557 0 0 0
578 144 2 1 4.611877743685204 3.503665870700966 33.06082847347016 0 0 0
579 145 2 1 10.701813966920263 2.8729794801694433 22.816839869435466 0 0 0
580 146 2 1 10.283529619124637 1.1036459342816258 39.824487437007534 0 0 0
581 147 2 1 3.716232653365438 4.198647322679439 22.359634207267213 0 0 0
582 148 2 1 3.588693026187942 3.7915670535653327 0.2715405101619519 0 0 1
583 149 2 1 20.330716816438976 1.4080057814138398 23.749477127322614 0 0 0
584 150 2 1 17.60359716045657 1.252933701264479 40.3596882399165 0 0 0
585 151 2 1 10.124252117081557 1.7965960314986826 34.288995325330966 0 0 0
586 152 2 1 5.140274177820737 3.2195276706231883 24.300747221993714 0 0 0
587 153 2 1 12.040582366590119 3.908324458168405 23.724042780380653 0 0 0
588 154 2 1 5.714118573907209 3.9949521935579617 35.31356254003375 0 0 0
589 155 2 1 15.995100325650144 3.102918879017803 27.526998818648288 0 0 0
590 156 2 1 5.639987701210421 2.7332611509991156 26.26891112218764 0 0 0
591 157 2 1 7.0900024192645885 3.8130055803969825 29.505784484068016 0 0 0
592 158 2 1 1.6447068787638817 3.9044146609243464 34.319723579112676 0 0 0
593 159 2 1 18.317968236547877 4.606718313602685 36.86746402609672 0 0 0
594 160 2 1 0.13965581622410683 2.080837952706133 30.512392427029642 0 0 0
595 161 2 1 19.752030662192272 1.9446001530728165 31.12811765056026 0 0 0
596 162 2 1 9.639624816636342 3.709886089528711 27.00978073658848 0 0 0
597 163 2 1 6.9374124128542105 5.626018895946563 31.107277720269344 0 0 0
598 164 2 1 15.254640235901526 3.909161870600056 31.23589692868746 0 0 0
599 165 2 1 12.632613602157244 3.995305946049685 39.09153020986615 0 0 0
600 166 2 1 9.290221793968167 3.6664244967537427 33.672600537093906 0 0 0
601 167 2 1 6.1728258080698035 5.1027864046123375 20.904292388554904 0 0 0
602 168 2 1 6.0997720853805895 4.722431155413171 38.941431313920106 0 0 0
603 169 2 1 2.639032280161305 4.723422862168884 32.583348986692485 0 0 0
604 170 2 1 11.367457196545532 5.226948576758846 29.780689198891626 0 0 0
605 171 2 1 11.209244353700534 3.2615019290761067 35.639264754893226 0 0 0
606 172 2 1 3.9321232695344572 5.7600605889322525 36.59095648347097 0 0 0
607 173 2 1 7.257750543598841 5.84220511435918 23.94767906494042 0 0 0
608 174 2 1 17.57023781290809 4.942703193988643 29.865569302881003 0 0 0
609 175 2 1 10.288021703932573 5.938302062979647 24.65738852510759 0 0 0
610 176 2 1 10.729926472567591 5.290215794772057 38.17187578439474 0 0 0
611 177 2 1 16.787353366078975 5.131747282953496 25.222255505088555 0 0 0
612 178 2 1 17.77731317464301 5.958693946842864 22.09014650124504 0 0 0
613 179 2 1 14.795029708772885 4.754061083929616 0.540914101727188 0 0 1
614 180 2 1 15.867869927738166 4.638995065902961 36.84637542286815 0 0 0
615 181 2 1 14.630536200686919 5.360716340064552 35.09132351878317 0 0 0
616 182 2 1 8.59765937686359 5.717165757439954 36.42677576389352 0 0 0
617 183 2 1 3.7258343859279948 5.081803634637995 28.42121172466608 0 0 0
618 184 2 1 6.076789829095775 0.14081925156531502 29.551821307260685 0 1 0
619 185 2 1 40.84168299802385 4.2701038799753634 23.773182807014308 -1 0 0
620 186 2 1 18.701661707702087 6.580047009576388 26.821723026952544 0 0 0
621 125 2 1 3.5693688179594374 1.6837655955624689 31.12217831740518 0 0 0
622 126 2 1 9.229548662334293 1.2273822814993227 28.360207085580576 0 0 0
623 127 2 1 5.566359234072485 0.40163627178522643 36.17101489256462 0 0 0
624 128 2 1 40.77076519488306 6.169702478938719 32.91858330750084 -1 -1 0
625 129 2 1 18.610987888940677 7.040544375416426 30.221714519906282 0 -1 0
626 130 2 1 5.2901196653675795 7.1082711375846825 25.070563882700142 0 -1 0
627 131 2 1 13.968352840353157 1.7832166948409522 31.284220898068266 0 0 0
628 132 2 1 4.308474248756857 1.0950400156215552 27.86506758991742 0 0 0
629 133 2 1 17.16711165133161 3.85468143908215 33.51961872636901 0 0 0
630 134 2 1 9.62001648931561 0.14951129696570856 36.085720019021394 0 0 0
631 135 2 1 14.320683056883729 1.9644154453355498 26.93812176332608 0 0 0
632 136 2 1 11.964051580182337 1.5016260672617907 26.639659187964785 0 0 0
633 137 2 1 13.712720504293157 0.1649511762960969 34.389303576833335 0 0 0
634 138 2 1 7.698464902604453 0.9570463802786315 20.615878294869773 0 0 0
635 139 2 1 6.931465431146738 1.5331777730213687 37.13818037992753 0 0 0
636 140 2 1 12.983663395123969 3.532568830174726 29.562495546046343 0 0 0
637 141 2 1 11.712588138053725 1.4015089371044123 31.35226258903682 0 0 0
638 142 2 1 3.0657794832399055 4.035739021724731 37.50446729218348 0 0 0
639 143 2 1 19.47076472440632 1.4775394764486083 38.79210496764575 0 0 0
640 144 2 1 5.0205879114634735 3.873674860525957 31.653277711468018 0 0 0
641 145 2 1 11.259396225967237 1.6371662214390157 22.033058589355736 0 0 0
642 146 2 1 10.444194079766783 0.972304432026379 38.27218771213254 0 0 0
643 147 2 1 2.5789764055003426 3.7533340551091134 23.38926702754883 0 0 0
644 148 2 1 2.6072425540472794 4.5789767628666045 41.03541936077829 0 0 0
645 149 2 1 21.433772873298082 0.7470647606308767 22.989133829002792 0 0 0
646 150 2 1 16.02615164565307 1.0972741796303833 40.4783308631528 0 0 0
647 151 2 1 10.364455101470808 2.220068199572742 32.734829777936895 0 0 0
648 152 2 1 6.615905081855651 3.667924061011143 24.431268822095664 0 0 0
649 153 2 1 11.434415852839871 3.031915136489314 24.897711344623996 0 0 0
650 154 2 1 5.9586897238213075 2.508492201894721 34.8346514860072 0 0 0
651 155 2 1 15.90091104272371 3.5618267308690745 25.991140922060442 0 0 0
652 156 2 1 4.655092104016959 3.4580896946281685 27.34117126888687 0 0 0
653 157 2 1 6.620249130065507 3.2886368067544205 28.036360794586134 0 0 0
654 158 2 1 0.7244694798779516 3.5932647377805744 35.646404418406085 0 0 0
655 159 2 1 17.596494429210658 3.6587254679673897 35.803162344388575 0 0 0
656 160 2 1 1.2911677254013088 2.8857004714156886 29.75405049852516 0 0 0
657 161 2 1 20.76467172773269 3.246062704280679 31.275341180140824 0 0 0
658 162 2 1 8.666989010132086 4.58588224784019 27.89953442100665 0 0 0
659 163 2 1 7.515332950742044 4.558163662971119 32.06225564737253 0 0 0
660 164 2 1 15.170968714131275 4.810649942815976 32.499038963967806 0 0 0
661 165 2 1 12.524258725752073 4.100581948738914 37.583386775328485 0 0 0
662 166 2 1 7.671831794779247 3.7127606350107976 34.187162539547955 0 0 0
663 167 2 1 6.983091450832383 3.7410952104835533 20.654969314260125 0 0 0
664 168 2 1 6.441717340286489 3.519259232984386 38.05275365411604 0 0 0
665 169 2 1 1.3737311080132724 3.891909027753909 32.17831739682601 0 0 0
666 170 2 1 11.10449064854151 5.060432050900449 28.268344487652026 0 0 0
667 171 2 1 11.35353045543862 4.754969578551467 35.96168806948634 0 0 0
668 172 2 1 5.541946807049371 5.751463670797419 36.65887193522744 0 0 0
669 173 2 1 8.44220220179198 5.437042193156893 24.751029970935086 0 0 0
670 174 2 1 18.714580126146203 4.080345620047892 30.3900441344765 0 0 0
671 175 2 1 9.974710428947343 5.827702618119481 26.146154278230984 0 0 0
672 176 2 1 9.603451473368054 6.381272500740845 38.372186376769555 0 0 0
673 177 2 1 16.525115015451885 4.528927342779432 23.882799457751304 0 0 0
674 178 2 1 17.717252959853205 4.95136723950184 20.867694036408434 0 0 0
675 179 2 1 14.081991956221328 5.284156034314631 40.969691792657635 0 0 0
676 180 2 1 14.646949056546422 5.2730376246230275 37.56065587934501 0 0 0
677 181 2 1 13.792310770908603 4.18506455556601 34.53976607308548 0 0 0
678 182 2 1 8.568706203994358 5.516760872210928 34.88027350796347 0 0 0
679 183 2 1 3.8532958903085794 6.293943159383417 27.532016120281018 0 0 0
680 184 2 1 7.515016042866851 0.3171167707567647 29.661139000041924 0 1 0
681 185 2 1 39.486004698161125 3.9746356704782686 24.355882391427194 -1 0 0
682 186 2 1 19.046786722282977 5.821903990110018 25.52367025643769 0 0 0
683 125 3 -8 3.884112135027955 0.7899812698012677 30.848730190764385 0 0 0
684 126 3 -8 8.948794257090352 1.3976445448981267 29.275650878395044 0 0 0
685 127 3 -8 6.277069640844178 0.9368124721333251 35.72663675434659 0 0 0
686 128 3 -8 41.51333532897609 6.847043791169859 33.005657671631226 -1 -1 0
687 129 3 -8 19.19281965778078 0.38384162003035194 30.586961582189545 0 0 0
688 130 3 -8 5.920776158726383 7.335957956727933 24.34022478638797 0 -1 0
689 131 3 -8 14.658173627201759 1.6244008464273527 31.993915740664875 0 0 0
690 132 3 -8 3.456998326515054 0.6497782765375563 28.088739804839854 0 0 0
691 133 3 -8 17.74700733425245 3.442849840767049 34.16567778573226 0 0 0
692 134 3 -8 10.262736755410028 0.91202162260939 36.14736260242867 0 0 0
693 135 3 -8 13.661255769929845 1.4030096838952655 27.42857290117243 0 0 0
694 136 3 -8 11.113934831678206 1.72140864994236 26.26088650894144 0 0 0
695 137 3 -8 13.336078901101745 7.245766924294187 35.23739388641099 0 -1 0
696 138 3 -8 7.898090808368335 1.9059981458433901 20.454749041730405 0 0 0
697 139 3 -8 7.364462555081611 1.887457071012971 37.95913340714682 0 0 0
698 140 3 -8 13.333577564291735 2.6664916719166607 29.88882207934153 0 0 0
699 141 3 -8 10.760612330670511 1.2740410280122267 31.447362152768193 0 0 0
700 142 3 -8 2.563721943497849 4.83060244275836 37.24649967184555 0 0 0
701 143 3 -8 18.625059909401788 1.9469303098840052 39.02225901132656 0 0 0
702 144 3 -8 4.256974897364646 3.5458525575205315 32.16399579487506 0 0 0
703 145 3 -8 10.537811905727517 2.303772937544256 21.998293667565065 0 0 0
704 146 3 -8 10.033728581871411 0.5333690434158513 39.05305140511437 0 0 0
705 147 3 -8 3.5181974974694366 3.646910622945608 23.165310721959617 0 0 0
706 148 3 -8 2.62146616302116 3.9100771174071913 0.03254095387834852 0 0 1
707 149 3 -8 20.715163317234918 1.349089195625376 22.849040737118642 0 0 0
708 150 3 -8 16.84705540366159 1.1510075204619832 40.99201394939728 0 0 0
709 151 3 -8 10.444890458699133 2.5109553266455538 33.66815199422738 0 0 0
710 152 3 -8 5.961578260441414 2.9207780041613702 24.670162277701596 0 0 0
711 153 3 -8 11.20483401171167 3.709946868461781 24.198897619692218 0 0 0
712 154 3 -8 5.869231703272084 3.4378624603353565 34.52127712611257 0 0 0
713 155 3 -8 15.568923512397498 2.9265201104422927 26.695743661683803 0 0 0
714 156 3 -8 5.139696169862246 2.627223660795524 27.1480994535521 0 0 0
715 157 3 -8 7.385014334040633 3.426975263282302 28.654249500899173 0 0 0
716 158 3 -8 1.6198051710476298 3.4380496479791525 35.22895868380952 0 0 0
717 159 3 -8 17.728379439478207 3.8640936801264627 36.80625306948064 0 0 0
718 160 3 -8 0.7313107086186738 2.854739518732782 30.57439709784665 0 0 0
719 161 3 -8 19.904735657166533 2.8074583499268324 31.522252021782354 0 0 0
720 162 3 -8 9.525992833727678 4.573745557274562 27.383428867617475 0 0 0
721 163 3 -8 6.798831070622958 4.661557804508792 31.35515927069083 0 0 0
722 164 3 -8 15.510132916543665 4.804970485499634 31.59995873664177 0 0 0
723 165 3 -8 12.977174000547615 4.5360402772316455 38.38541961386285 0 0 0
724 166 3 -8 8.464451838281724 4.2539756694939 33.85287173340203 0 0 0
725 167 3 -8 6.400105472723157 4.433092482431891 20.237609151892787 0 0 0
726 168 3 -8 5.7880893369669835 4.257299811301939 38.12791110745337 0 0 0
727 169 3 -8 1.6636620412150078 4.694432444321796 32.73188778654779 0 0 0
728 170 3 -8 11.714740329215 5.491283077304949 28.92601721799944 0 0 0
729 171 3 -8 11.772839371922263 3.8856894739309853 36.076933179250375 0 0 0
730 172 3 -8 4.788572604591895 6.236947302529073 36.35884410832657 0 0 0
731 173 3 -8 7.771528348021826 5.041355447787472 24.18382806424664 0 0 0
732 174 3 -8 18.51970304617574 4.819434882549998 29.772627402843817 0 0 0
733 175 3 -8 9.934901820981919 6.474041677043578 25.400688528317957 0 0 0
734 176 3 -8 9.83767451931182 5.530392212944406 37.906208367659026 0 0 0
735 177 3 -8 16.066421293488688 4.705624130288937 24.733061476955108 0 0 0
736 178 3 -8 17.660812299834845 4.993354508047918 21.871225847696874 0 0 0
737 179 3 -8 13.961549377063356 5.085822607325123 0.20463437909858812 0 0 1
738 180 3 -8 15.159554479578297 5.258215088041843 36.70736420466757 0 0 0
739 181 3 -8 14.515804200506741 4.713648268457436 34.33162386370648 0 0 0
740 182 3 -8 8.395364086795063 6.148037509382007 35.56720099608943 0 0 0
741 183 3 -8 4.306982901444635 5.395108690132531 27.682089882467324 0 0 0
742 184 3 -8 6.767622634828654 7.2494572207946115 30.150839954245207 0 0 0
743 185 3 -8 40.436001694903794 4.01658087110464 24.631814578690115 -1 0 0
744 186 3 -8 18.26994005305278 6.115395683875433 26.118849857955322 0 0 0
249 63 1 6 23.16988330382434 1.202356372372517 10.063791330048723 0 0 0
250 64 1 6 30.021878103765694 0.6370774207059329 10.229548024938387 0 0 0
251 65 1 6 27.934181815775748 0.6181949367332448 15.685140198368527 0 0 0
252 66 1 6 20.87848233754196 7.053509711552639 10.44915077682598 0 -1 0
253 67 1 6 39.158015646426165 0.8763101825197744 8.629609604211616 0 0 0
254 68 1 6 28.788353672955562 1.9682108196125632 3.0485160570446177 0 0 0
255 69 1 6 35.83649948851134 6.817112545035233 13.627921058153742 0 -1 0
256 70 1 6 24.16567945462294 2.6456334159070933 6.356382467057833 0 0 0
257 71 1 6 37.92512894216317 1.7598361606372048 14.234119059533686 0 0 0
258 72 1 6 31.65936443309921 2.2971163494381712 15.563384978176146 0 0 0
259 73 1 6 35.15422057911614 7.051104058486992 7.110045973051659 0 -1 0
260 74 1 6 33.587664452389376 6.467277795374445 4.971276360850648 0 -1 0
261 75 1 6 34.26129934434635 2.186220512798976 15.218826127582897 0 0 0
262 76 1 6 29.37486038207224 1.584046206524532 0.31130900499591235 0 0 0
263 77 1 6 28.03234930834899 2.186395501321992 18.255909291101585 0 0 0
264 78 1 6 34.19644581694073 2.141174634704626 8.463605009681157 0 0 0
265 79 1 6 33.133389919338235 1.457123025326685 10.9880401303976 0 0 0
266 80 1 6 21.27052419243118 3.9914216175288475 17.35976126270236 0 0 0
267 81 1 6 39.85119483016962 1.8022899552816936 18.419828103702855 0 0 0
268 82 1 6 24.802044163527764 2.92246297588201 11.694159993394488 0 0 0
269 83 1 6 31.765567689014148 0.611104827805671 1.1226681917729275 0 0 0
270 84 1 6 31.02690769338837 2.88028072911073 18.24663818320966 0 0 0
271 85 1 6 21.740265462583015 2.064685157832047 2.117612941823986 0 0 0
272 86 1 6 23.073368017898805 3.0248281400440504 19.50603033613528 0 0 0
273 87 1 6 40.74143862773483 0.606750899209398 2.3521902389592917 0 0 0
274 88 1 6 39.37821286964533 3.4520553027114973 20.716169807928715 0 0 0
275 89 1 6 32.95642027987032 3.7743861820141507 12.557653541422175 0 0 0
276 90 1 6 24.54406138074636 4.323611544245559 3.7426244344301933 0 0 0
277 91 1 6 32.729298002049205 1.7176998900846512 3.596539746765293 0 0 0
278 92 1 6 26.864577563949737 2.7082445837499067 14.247162342210311 0 0 0
279 93 1 6 36.531355400212114 2.330153091241335 6.328206761983984 0 0 0
280 94 1 6 25.232206942951798 5.83220149198923 6.109841946980943 0 0 0
281 95 1 6 29.247863185217547 2.6294560691397 8.691246619230656 0 0 0
282 96 1 6 21.705751700680153 4.475051606203733 14.215867999494835 0 0 0
283 97 1 6 39.858736479598676 3.6145716537127215 15.418914910143652 0 0 0
284 98 1 6 22.067654794976832 3.456067373728037 8.3562905416198 0 0 0
285 99 1 6 38.5870770811476 3.635925057635276 8.721736301514389 0 0 0
286 100 1 6 31.81209154874985 3.904035825708744 8.042349939866126 0 0 0
287 101 1 6 26.797103391050644 3.8320858871101606 10.180370184752752 0 0 0
288 102 1 6 35.845460293717636 4.666137526855785 8.907136710636687 0 0 0
289 103 1 6 35.096268723205384 4.6985667607585055 15.636756507375988 0 0 0
290 104 1 6 28.646458634713856 3.5016989808383827 12.306964587874313 0 0 0
291 105 1 6 26.39958943802863 4.139426903409513 1.4355268860618065 0 0 0
292 106 1 6 25.99802318022264 3.8848612071224466 18.260316026837952 0 0 0
293 107 1 6 22.223254340795464 4.792518608920135 10.873457607288563 0 0 0
294 108 1 6 32.15205617370475 6.536976743713146 8.962279186060922 0 0 0
295 109 1 6 34.08589373220867 5.617763805946266 10.889145315357299 0 0 0
296 110 1 6 26.506833166329354 5.159430382491061 15.895824385692809 0 0 0
297 111 1 6 29.277282334940328 4.3863751622210465 3.975890246529214 0 0 0
298 112 1 6 38.320303040713775 6.076836522250504 7.040248049288462 0 0 0
299 113 1 6 31.84036025063165 3.904910726598149 4.9230337303996015 0 0 0
300 114 1 6 31.75153468933844 5.437735155029375 16.85834097940113 0 0 0
301 115 1 6 35.3611894482867 4.162982573056723 4.615147745120515 0 0 0
302 116 1 6 35.66204003019167 0.09019565525731917 3.3692407377859337 0 1 0
303 117 1 6 36.81040164194115 5.51807489309895 17.587754617341812 0 0 0
304 118 1 6 39.43976022142328 5.1780678461891645 18.303102335421922 0 0 0
305 119 1 6 39.90349788608181 6.960233563109594 14.459453729249873 0 0 0
306 120 1 6 30.802525807356332 7.18573780033167 14.797318195493569 0 0 0
307 121 1 6 25.62962925553716 0.39374073459472897 7.955582700016331 0 1 0
308 122 1 6 27.399861230868783 6.493950223307216 9.576469376321933 0 0 0
309 123 1 6 18.751698802118547 3.839363056001416 7.935327566029078 0 0 0
310 124 1 6 38.54086612945226 6.231078935860829 4.3470947625099745 0 0 0
311 63 2 1 23.764570136549985 0.8744966308814345 9.426617196277899 0 0 0
312 64 2 1 29.714051525034755 1.2411621644916637 9.507152622339301 0 0 0
313 65 2 1 28.868714265994317 0.6101063697077357 15.573587539750127 0 0 0
314 66 2 1 21.26173512395066 6.1590783743186375 10.27760827638341 0 -1 0
315 67 2 1 39.9456212733964 0.6252460736782642 9.174209587385834 0 0 0
316 68 2 1 28.52775101480759 1.098664224563865 3.473197225416653 0 0 0
317 69 2 1 36.46348387659815 6.186606652612965 13.25551183517087 0 -1 0
318 70 2 1 23.28404586574049 3.126841738804716 6.383725120251718 0 0 0
319 71 2 1 38.43489830090457 1.012790399516165 13.90978978897648 0 0 0
320 72 2 1 32.61887436021331 2.113661779210776 15.533623514975702 0 0 0
321 73 2 1 35.38914293205802 6.290805922849531 7.674762214501146 0 -1 0
322 74 2 1 33.167475867471055 5.609749202378454 5.115805705502892 0 -1 0
323 75 2 1 34.64015892963759 1.612007237035998 15.903294906692626 0 0 0
324 76 2 1 30.15106298871921 0.980262036681735 0.36403180357164694 0 0 0
325 77 2 1 28.86052916983653 2.757707363671798 18.15108461587828 0 0 0
326 78 2 1 34.363994875932946 1.2580992802078177 8.025875364704989 0 0 0
327 79 2 1 32.1832972523027 1.384697067503445 10.710036062238666 0 0 0
328 80 2 1 20.687464188074955 3.255062279173978 17.03728237754761 0 0 0
329 81 2 1 39.50479829925553 2.410053499936562 17.747417343549422 0 0 0
330 82 2 1 25.41901127484482 2.4721532758391263 12.302114828546742 0 0 0
331 83 2 1 31.963153009881477 0.9200254075180577 2.035032076796416 0 0 0
332 84 2 1 31.34417793836528 2.267637689056262 18.94660700015027 0 0 0
333 85 2 1 21.499361915764883 1.60089928251416 2.953829920332404 0 0 0
334 86 2 1 22.89416506733588 2.1052011550001657 19.69868306302377 0 0 0
335 87 2 1 40.25154846860204 0.5864847830698997 3.162857522022959 0 0 0
336 88 2 1 38.40577031056373 3.6133440464210587 20.87900926104293 0 0 0
337 89 2 1 32.56113943568537 3.5375269960353806 13.393881474944884 0 0 0
338 90 2 1 23.73198099229376 4.046191469202844 3.273000260678637 0 0 0
339 91 2 1 32.30653813702238 2.454704565799345 4.073793547111731 0 0 0
340 92 2 1 26.810595353223757 3.399787173612853 14.916927356222155 0 0 0
341 93 2 1 37.4115429338631 2.0182585079537665 5.99232022101474 0 0 0
342 94 2 1 25.057908423215345 5.584897400582723 5.1669545601491516 0 0 0
343 95 2 1 28.605436946106863 3.1232405568226476 9.216553680080821 0 0 0
344 96 2 1 22.069282021866655 4.295197345994666 13.27505647716567 0 0 0
345 97 2 1 40.71666718658092 3.3913180090757744 15.032532744438063 0 0 0
346 98 2 1 21.08788203529816 3.7338562834513347 8.273907123398494 0 0 0
347 99 2 1 38.6405680457524 2.7261028123430755 8.365628962821512 0 0 0
348 100 2 1 32.30539154138034 3.2243380004588174 8.497487920530352 0 0 0
349 101 2 1 26.72937175068279 4.836893524890535 10.093287636889144 0 0 0
350 102 2 1 36.74253833530048 4.3745962042178945 9.10263627515553 0 0 0
351 103 2 1 35.76125919170286 4.957576683732577 16.292637728713526 0 0 0
352 104 2 1 29.431458157526922 2.947754823670428 12.249276230524021 0 0 0
353 105 2 1 26.17865208236748 3.8764538866337523 0.5252069963921581 0 0 0
354 106 2 1 25.073289095852086 3.6610729618522972 18.545561104198796 0 0 0
355 107 2 1 23.099977917513883 4.943601571964277 11.28464117019702 0 0 0
356 108 2 1 32.832688717270074 6.302298501816774 9.601156928054865 0 0 0
357 109 2 1 33.766558795359714 4.931188692932941 11.530698775988043 0 0 0
358 110 2 1 25.83943070496819 5.5500465185275925 15.320928466756122 0 0 0
359 111 2 1 29.671951180995556 4.858551997441179 3.2314317535648582 0 0 0
360 112 2 1 38.391667895811615 6.122320982748238 6.061153728751233 0 0 0
361 113 2 1 30.921659881699256 4.053591166941219 4.5475561916669935 0 0 0
362 114 2 1 32.669127139627435 5.35266144269953 16.59804376296091 0 0 0
363 115 2 1 35.365994357834566 5.125153735007177 4.2275423226112965 0 0 0
364 116 2 1 35.76021455079003 7.192900402356613 2.4225041637148053 0 0 0
365 117 2 1 36.24388465818207 4.940254542615458 18.19625379060806 0 0 0
366 118 2 1 39.78464194667951 4.646548006616457 17.54023518633409 0 0 0
367 119 2 1 40.526707046092305 7.187677723875671 13.750571738464568 0 0 0
368 120 2 1 31.035846599025408 6.6639735803805875 15.575691063386154 0 0 0
369 121 2 1 25.517116444755477 7.113602984031872 7.174148808338541 0 0 0
370 122 2 1 26.92726527939705 7.084520563000837 8.962464661856188 0 0 0
371 123 2 1 19.08984661848881 4.098903663667411 7.045236371868508 0 0 0
372 124 2 1 38.94809153763927 5.453096825933851 3.918917011425247 0 0 0
373 63 2 1 23.68686289999876 1.8268621785501056 10.615140691482875 0 0 0
374 64 2 1 30.590720874464182 7.284388043102081 9.746278559904807 0 -1 0
375 65 2 1 27.607910058783126 7.022382293757192 15.595063927018035 0 -1 0
376 66 2 1 21.557663531119474 0.3838790376914136 10.33676542963049 0 0 0
377 67 2 1 39.00147429271011 0.12617148356009897 8.011142585711047 0 0 0
378 68 2 1 29.126665204279234 1.7248633506251576 2.1343857787949125 0 0 0
379 69 2 1 36.35406682128928 0.3010678734172241 13.743162961738948 0 0 0
380 70 2 1 24.644120713446792 3.141863508381353 5.656671864049743 0 0 0
381 71 2 1 37.8151495821793 2.152040557360547 13.29797690365958 0 0 0
382 72 2 1 31.294615798563424 1.4724318916707728 15.192123883214819 0 0 0
383 73 2 1 36.025664571616176 0.037792633475052594 6.829645069297421 0 0 0
384 74 2 1 34.06714824730256 6.550645788587642 5.804285607483859 0 -1 0
385 75 2 1 34.6224516637724 3.122840961068443 15.367663059761735 0 0 0
386 76 2 1 28.905668511083004 1.517587479694268 41.171294775837886 0 0 -1
387 77 2 1 27.980901514357704 1.548387785639176 17.497023057398003 0 0 0
388 78 2 1 34.91353635152054 2.7074634109644347 8.119989231484954 0 0 0
389 79 2 1 33.584670936101986 1.715289149082045 10.110438829311722 0 0 0
390 80 2 1 21.747032576081914 4.2123054062247265 16.52236259920223 0 0 0
391 81 2 1 40.82214684225226 1.720178786214442 18.141628822973114 0 0 0
392 82 2 1 25.42242696847083 3.243907478760968 11.025678618925324 0 0 0
393 83 2 1 31.963687813343828 7.017645533381938 1.1606803476592693 0 -1 0
394 84 2 1 31.340184584240866 2.5172943746506387 17.395215583039096 0 0 0
395 85 2 1 20.931022225651716 2.54823800273356 1.8992966583405158 0 0 0
396 86 2 1 22.46984351147289 3.317686566107813 18.79560358267897 0 0 0
397 87 2 1 40.10916421425027 0.9372743704475934 1.6721990697669786 0 0 0
398 88 2 1 39.42564534519571 2.8293448335626317 19.942524177958486 0 0 0
399 89 2 1 33.034430627434446 2.8822886657050413 12.083202279603942 0 0 0
400 90 2 1 25.27049671891183 4.149282531737066 3.0777280943016057 0 0 0
401 91 2 1 32.84404790721384 1.017502640859222 4.284636551038316 0 0 0
402 92 2 1 26.781312957649718 1.8705767435229745 14.72291812724708 0 0 0
403 93 2 1 36.173499998980994 3.04395131847367 5.706754835034933 0 0 0
404 94 2 1 25.061470161842404 5.11926128433417 6.717358597624954 0 0 0
405 95 2 1 28.87871522737516 2.497916504494235 7.791751741955716 0 0 0
406 96 2 1 20.891657234641954 4.973949259857795 14.084199698694201 0 0 0
407 97 2 1 39.22938653356636 2.941712405917689 15.067944668300635 0 0 0
408 98 2 1 22.063395173654847 2.476419739098898 8.297555917214535 0 0 0
409 99 2 1 38.81955824485725 4.137732945065653 7.959158676335557 0 0 0
410 100 2 1 30.938406664759757 3.571605584459707 8.336786447848807 0 0 0
411 101 2 1 27.419820347402645 3.84538660102477 10.960757844086455 0 0 0
412 102 2 1 35.26381944190789 4.888021772451481 9.682474434865894 0 0 0
413 103 2 1 35.33172673289882 5.2852123052700595 14.890178557380862 0 0 0
414 104 2 1 28.065649422858236 3.055001649493107 12.924791505512484 0 0 0
415 105 2 1 27.314541976436285 3.826966335799599 1.5676647424176193 0 0 0
416 106 2 1 26.596112648835913 3.085760412566689 18.363355212052515 0 0 0
417 107 2 1 22.403838979688075 4.298832469923751 10.067755119518365 0 0 0
418 108 2 1 31.8622962270041 5.780683262700314 8.354059579836974 0 0 0
419 109 2 1 34.44697466995198 6.329577842439295 11.413335071322237 0 0 0
420 110 2 1 26.06782403132491 4.705299744123714 16.61778847380103 0 0 0
421 111 2 1 29.18375842762401 3.4368937886412487 3.693755241588942 0 0 0
422 112 2 1 37.51158013539883 5.555713719460116 7.200241131101732 0 0 0
423 113 2 1 31.701899401018796 3.8399956931107084 5.911839424556891 0 0 0
424 114 2 1 31.436423016364405 4.530481165379964 16.948048500629135 0 0 0
425 115 2 1 34.87088733273877 3.647142106861339 3.951328659415984 0 0 0
426 116 2 1 34.74586967937524 7.102765979297976 3.624502867620113 0 0 0
427 117 2 1 37.807851750839724 5.316816615322242 17.764949305023887 0 0 0
428 118 2 1 39.7658443333506 4.652102462951401 19.040018602201652 0 0 0
429 119 2 1 39.86334740009624 5.963658827437977 14.400081728009653 0 0 0
430 120 2 1 30.847212687987163 6.666411036069384 14.024925421266166 0 0 0
431 121 2 1 25.486929641023906 1.29886634415666 7.621246827077229 0 1 0
432 122 2 1 28.287182393770422 6.798897556319482 9.808201021822548 0 0 0
433 123 2 1 18.51555680856673 4.8055402871578625 8.255593864627066 0 0 0
434 124 2 1 37.833112752482364 6.469003160621148 3.753869200548467 0 0 0
435 63 3 -8 23.16988330382434 1.202356372372517 10.063791330048723 0 0 0
436 64 3 -8 30.021878103765694 0.6370774207059329 10.229548024938387 0 0 0
437 65 3 -8 27.934181815775748 0.6181949367332448 15.685140198368527 0 0 0
438 66 3 -8 20.87848233754196 7.053509711552639 10.44915077682598 0 -1 0
439 67 3 -8 39.158015646426165 0.8763101825197744 8.629609604211616 0 0 0
440 68 3 -8 28.788353672955562 1.9682108196125632 3.0485160570446177 0 0 0
441 69 3 -8 35.83649948851134 6.817112545035233 13.627921058153742 0 -1 0
442 70 3 -8 24.16567945462294 2.6456334159070933 6.356382467057833 0 0 0
443 71 3 -8 37.92512894216317 1.7598361606372048 14.234119059533686 0 0 0
444 72 3 -8 31.65936443309921 2.2971163494381712 15.563384978176146 0 0 0
445 73 3 -8 35.15422057911614 7.051104058486992 7.110045973051659 0 -1 0
446 74 3 -8 33.587664452389376 6.467277795374445 4.971276360850648 0 -1 0
447 75 3 -8 34.26129934434635 2.186220512798976 15.218826127582897 0 0 0
448 76 3 -8 29.37486038207224 1.584046206524532 0.31130900499591235 0 0 0
449 77 3 -8 28.03234930834899 2.186395501321992 18.255909291101585 0 0 0
450 78 3 -8 34.19644581694073 2.141174634704626 8.463605009681157 0 0 0
451 79 3 -8 33.133389919338235 1.457123025326685 10.9880401303976 0 0 0
452 80 3 -8 21.27052419243118 3.9914216175288475 17.35976126270236 0 0 0
453 81 3 -8 39.85119483016962 1.8022899552816936 18.419828103702855 0 0 0
454 82 3 -8 24.802044163527764 2.92246297588201 11.694159993394488 0 0 0
455 83 3 -8 31.765567689014148 0.611104827805671 1.1226681917729275 0 0 0
456 84 3 -8 31.02690769338837 2.88028072911073 18.24663818320966 0 0 0
457 85 3 -8 21.740265462583015 2.064685157832047 2.117612941823986 0 0 0
458 86 3 -8 23.073368017898805 3.0248281400440504 19.50603033613528 0 0 0
459 87 3 -8 40.74143862773483 0.606750899209398 2.3521902389592917 0 0 0
460 88 3 -8 39.37821286964533 3.4520553027114973 20.716169807928715 0 0 0
461 89 3 -8 32.95642027987032 3.7743861820141507 12.557653541422175 0 0 0
462 90 3 -8 24.54406138074636 4.323611544245559 3.7426244344301933 0 0 0
463 91 3 -8 32.729298002049205 1.7176998900846512 3.596539746765293 0 0 0
464 92 3 -8 26.864577563949737 2.7082445837499067 14.247162342210311 0 0 0
465 93 3 -8 36.531355400212114 2.330153091241335 6.328206761983984 0 0 0
466 94 3 -8 25.232206942951798 5.83220149198923 6.109841946980943 0 0 0
467 95 3 -8 29.247863185217547 2.6294560691397 8.691246619230656 0 0 0
468 96 3 -8 21.705751700680153 4.475051606203733 14.215867999494835 0 0 0
469 97 3 -8 39.858736479598676 3.6145716537127215 15.418914910143652 0 0 0
470 98 3 -8 22.067654794976832 3.456067373728037 8.3562905416198 0 0 0
471 99 3 -8 38.5870770811476 3.635925057635276 8.721736301514389 0 0 0
472 100 3 -8 31.81209154874985 3.904035825708744 8.042349939866126 0 0 0
473 101 3 -8 26.797103391050644 3.8320858871101606 10.180370184752752 0 0 0
474 102 3 -8 35.845460293717636 4.666137526855785 8.907136710636687 0 0 0
475 103 3 -8 35.096268723205384 4.6985667607585055 15.636756507375988 0 0 0
476 104 3 -8 28.646458634713856 3.5016989808383827 12.306964587874313 0 0 0
477 105 3 -8 26.39958943802863 4.139426903409513 1.4355268860618065 0 0 0
478 106 3 -8 25.99802318022264 3.8848612071224466 18.260316026837952 0 0 0
479 107 3 -8 22.223254340795464 4.792518608920135 10.873457607288563 0 0 0
480 108 3 -8 32.15205617370475 6.536976743713146 8.962279186060922 0 0 0
481 109 3 -8 34.08589373220867 5.617763805946266 10.889145315357299 0 0 0
482 110 3 -8 26.506833166329354 5.159430382491061 15.895824385692809 0 0 0
483 111 3 -8 29.277282334940328 4.3863751622210465 3.975890246529214 0 0 0
484 112 3 -8 38.320303040713775 6.076836522250504 7.040248049288462 0 0 0
485 113 3 -8 31.84036025063165 3.904910726598149 4.9230337303996015 0 0 0
486 114 3 -8 31.75153468933844 5.437735155029375 16.85834097940113 0 0 0
487 115 3 -8 35.3611894482867 4.162982573056723 4.615147745120515 0 0 0
488 116 3 -8 35.66204003019167 0.09019565525731917 3.3692407377859337 0 1 0
489 117 3 -8 36.81040164194115 5.51807489309895 17.587754617341812 0 0 0
490 118 3 -8 39.43976022142328 5.1780678461891645 18.303102335421922 0 0 0
491 119 3 -8 39.90349788608181 6.960233563109594 14.459453729249873 0 0 0
492 120 3 -8 30.802525807356332 7.18573780033167 14.797318195493569 0 0 0
493 121 3 -8 25.62962925553716 0.39374073459472897 7.955582700016331 0 1 0
494 122 3 -8 27.399861230868783 6.493950223307216 9.576469376321933 0 0 0
495 123 3 -8 18.751698802118547 3.839363056001416 7.935327566029078 0 0 0
496 124 3 -8 38.54086612945226 6.231078935860829 4.3470947625099745 0 0 0
745 187 1 6 25.933884598030627 0.9061384803703724 31.82243359284281 0 0 0
746 188 1 6 29.325037254541314 1.1273826910217608 29.754159557735804 0 0 0
747 189 1 6 27.739616394619848 0.408257691178217 37.70908272438276 0 0 0
748 190 1 6 23.754056663192845 1.6086800590558985 29.752303292277965 0 0 0
749 191 1 6 40.59214189154109 0.8154699696430413 30.669197302474032 0 0 0
750 192 1 6 26.995728051454527 0.04288328151847545 22.742779470391945 0 0 0
751 193 1 6 35.86675742133679 6.585746111770573 33.678465030301744 0 -1 0
752 194 1 6 25.13509010815928 3.525166315334298 26.53767005980428 0 0 0
753 195 1 6 37.30930803397915 0.5518847275813258 35.52804122801605 0 0 0
754 196 1 6 31.75094055763358 1.6014056585932415 36.08296682946755 0 0 0
755 197 1 6 34.527353145980115 2.7854324944018938 27.489441686378765 0 0 0
756 198 1 6 31.87456206261886 2.914832408684695 25.30141077978052 0 0 0
757 199 1 6 34.56117877207616 1.5053646270000824 37.05053703362569 0 0 0
758 200 1 6 28.376151394911105 2.0095564329427043 21.13852591429139 0 0 0
759 201 1 6 28.234966944408416 2.2233497455525115 39.57621058191684 0 0 0
760 202 1 6 35.08676330079618 2.0693182929885974 30.4164285456067 0 0 0
761 203 1 6 32.34979943901836 2.093159402268766 31.116578418688356 0 0 0
762 204 1 6 23.601927124563073 5.84674276067727 37.19439312817286 0 0 0
763 205 1 6 40.78944975119592 3.6086119315782326 37.20666590145463 0 0 0
764 206 1 6 26.461605089365065 3.10633215746703 33.2527910682549 0 0 0
765 207 1 6 31.353246979674065 1.2439272522649376 20.58618562617174 0 0 0
766 208 1 6 30.871651337891425 2.6537197919973248 38.59946566258942 0 0 0
767 209 1 6 22.062407787372933 3.773896963704242 21.931361828113907 0 0 0
768 210 1 6 21.13181525967483 0.9688985645602803 41.053365793596505 0 0 0
769 211 1 6 1.2577618866130524 3.4482439381599073 21.738901234376634 1 0 0
770 212 1 6 39.428620794159194 1.9550587973116067 0.08005826219647674 0 0 1
771 213 1 6 31.787461349089032 3.2059511225319546 33.58758961650574 0 0 0
772 214 1 6 23.590641923363744 3.410564099391266 24.151448331708192 0 0 0
773 215 1 6 33.12225648963403 1.5604725905827743 22.829981191999362 0 0 0
774 216 1 6 27.225679056313243 3.0730133509689668 35.98600493124429 0 0 0
775 217 1 6 36.963312552213544 2.4150992999352496 25.92468375705453 0 0 0
776 218 1 6 27.240285805057585 5.29284117058144 27.847226895933446 0 0 0
777 219 1 6 28.909723217459412 3.756591983888078 29.3536475221833 0 0 0
778 220 1 6 22.13441385573894 4.8238319740894955 35.09199964950526 0 0 0
779 221 1 6 39.25363617486991 2.4928733546237978 34.934411472843024 0 0 0
780 222 1 6 22.378761075610527 3.4665205264064314 30.835725514381664 0 0 0
781 223 1 6 38.35732645543012 2.861053351714885 30.628953565329056 0 0 0
782 224 1 6 31.30006286594073 4.3203594319887655 28.636338766341215 0 0 0
783 225 1 6 28.412847695439034 4.970439221948687 31.974034255560845 0 0 0
784 226 1 6 34.60237399135605 5.10317072222771 30.029671883338267 0 0 0
785 227 1 6 34.8869342331399 4.675654410769578 36.84057404852828 0 0 0
786 228 1 6 29.480910183494057 4.738366269365602 34.738240806307246 0 0 0
787 229 1 6 26.97134586033946 4.6060053846524545 22.480368511543638 0 0 0
788 230 1 6 26.792454960363592 4.173268262949114 40.06203842871093 0 0 0
789 231 1 6 23.784631183509223 4.266681523859657 33.08271437223456 0 0 0
790 232 1 6 32.717600732957635 6.662342904047862 28.863032399200883 0 0 0
791 233 1 6 34.5959590455527 4.279491128932327 33.945672069943946 0 0 0
792 234 1 6 26.168461842745995 5.18640805492148 37.39140455885533 0 0 0
793 235 1 6 26.874213560868792 5.463711478453686 25.143683628567292 0 0 0
794 236 1 6 38.596935729214316 4.253794607046494 27.94909197402865 0 0 0
795 237 1 6 32.93968057558017 0.7189594682493765 26.709050187966206 0 1 0
796 238 1 6 30.83580118940062 5.398075701748043 39.23470040901039 0 0 0
797 239 1 6 37.64758699917967 4.71804673457146 24.226903088174105 0 0 0
798 240 1 6 35.86172430684228 6.0172762027685405 22.33914045654458 0 0 0
799 241 1 6 33.02807109546934 0.13733752023861173 39.02098997517626 0 1 0
800 242 1 6 37.88448610107382 4.999478229070123 35.93250555655905 0 0 0
801 243 1 6 37.11914578254561 4.208474678679397 32.49393951919568 0 0 0
802 244 1 6 30.0927463634403 6.5962952864805935 36.71577973450108 0 0 0
803 245 1 6 23.15495859515924 1.461910614646064 27.047655099216826 0 1 0
804 246 1 6 27.185584511141275 6.577286192337979 30.186496892231524 0 0 0
805 247 1 6 20.176898232322014 4.479232538500582 25.068831523114056 0 0 0
806 248 1 6 39.37720325577076 6.2462173782245305 26.09183827363602 0 0 0
807 187 2 1 25.111593835298503 0.45995287441122346 32.053558978687924 0 0 0
808 188 2 1 28.956651895825974 1.9583022408609754 29.380313220532056 0 0 0
809 189 2 1 28.618851660006246 0.13152180644515835 37.28029961913515 0 0 0
810 190 2 1 24.739545630707813 1.7978599442509018 29.949034787929953 0 0 0
811 191 2 1 39.72277941142674 0.916931024424009 31.092860627700247 0 0 0
812 192 2 1 26.143117936181127 0.40633034955407676 22.364764121731103 0 0 0
813 193 2 1 35.021149582085805 6.12097181223674 33.55660953205825 0 -1 0
814 194 2 1 25.74025558632036 4.019235696169635 27.169381090729306 0 0 0
815 195 2 1 37.63290009715668 7.019841257946605 35.77026688198224 0 -1 0
816 196 2 1 32.716467418150216 1.6380242097574578 36.306844312130906 0 0 0
817 197 2 1 33.89825704147613 2.043104455972438 27.367454518636553 0 0 0
818 198 2 1 31.918450759256856 2.099907403315444 25.837463878280996 0 0 0
819 199 2 1 35.41560770172195 1.2226088164318878 36.671944256331535 0 0 0
820 200 2 1 29.342429099394618 1.8289761940154645 21.131675317893837 0 0 0
821 201 2 1 29.103343303141248 2.5478822676317785 39.1607036622514 0 0 0
822 202 2 1 35.05858991225815 2.1517537493904326 29.430310711139956 0 0 0
823 203 2 1 31.9125851269677 1.3421877425525832 30.651699919157355 0 0 0
824 204 2 1 23.292636636008456 5.521336251276887 36.32710442765705 0 0 0
825 205 2 1 40.21444724724365 4.364859682886183 37.02500468490968 0 0 0
826 206 2 1 26.631959700224716 2.8111846122366355 34.15254344172026 0 0 0
827 207 2 1 31.886365980424923 1.2836381781988615 21.425562914883912 0 0 0
828 208 2 1 31.242722855016712 2.010932189838312 39.20639000535935 0 0 0
829 209 2 1 22.27968360190235 3.7118772303551215 20.987818179175378 0 0 0
830 210 2 1 21.657596616169172 1.3936883483690659 0.04680358002095417 0 0 1
831 211 2 1 0.47833823699029365 3.54836218859084 21.10729986265765 1 0 0
832 212 2 1 40.213106244650106 2.4594867651838292 0.2847361046875066 0 0 1
833 213 2 1 31.663487919629087 2.384385048190753 34.092462414203126 0 0 0
834 214 2 1 23.137968959539442 3.5318676326231575 23.217221307580033 0 0 0
835 215 2 1 33.85275709930337 2.0374194191168984 22.457236033294638 0 0 0
836 216 2 1 26.846824395074385 3.766661228151564 36.58654575270995 0 0 0
837 217 2 1 37.58990793436008 2.5954863122312584 26.661943119385263 0 0 0
838 218 2 1 27.297399430645545 5.514006852374125 26.859942670162717 0 0 0
839 219 2 1 28.942164444767158 3.9909879129387935 30.304277148304234 0 0 0
840 220 2 1 22.751794701289285 4.6471819105593495 34.32793453130652 0 0 0
841 221 2 1 40.08696690460787 1.9286433953348403 35.028969202045396 0 0 0
842 222 2 1 22.886145616933533 2.7223000312196977 30.33396478893853 0 0 0
843 223 2 1 39.29040075773675 3.1808304717857685 30.884246637440643 0 0 0
844 224 2 1 31.314566254748083 4.0944932357761195 27.703259427627636 0 0 0
845 225 2 1 27.947971461304526 5.786818331030422 31.589622381189866 0 0 0
846 226 2 1 35.21416248431574 4.712790462673807 30.683731283101825 0 0 0
847 227 2 1 34.03612675250671 4.743205262322215 36.3157401199769 0 0 0
848 228 2 1 30.335386807871018 4.368210376630915 34.27519617532136 0 0 0
849 229 2 1 27.11915807461521 5.520914697110586 22.183694786819675 0 0 0
850 230 2 1 27.372435838866995 4.747859827936204 40.568930180906214 0 0 0
851 231 2 1 24.75350418756337 3.928900805443924 33.14052006473427 0 0 0
852 232 2 1 33.43952112283314 6.340541344871163 29.4937941742414 0 0 0
853 233 2 1 33.82789908833262 3.6990448766274557 33.85156454709916 0 0 0
854 234 2 1 25.27541792457169 5.4734294212428205 37.25171783700287 0 0 0
855 235 2 1 26.53480791601684 6.327810390237976 24.885581801284204 0 0 0
856 236 2 1 39.30061131266936 4.859250556202153 27.67820934339387 0 0 0
857 237 2 1 33.56370699683123 0.23934301210758976 26.09626830538786 0 1 0
858 238 2 1 31.585164255717004 6.054082140802063 39.25949629077538 0 0 0
859 239 2 1 37.691667593853644 5.44477167928218 24.922679344412774 0 0 0
860 240 2 1 36.16458734019943 6.2278416466621245 21.408482510194982 0 0 0
861 241 2 1 33.48419047006239 0.4168158150024555 39.81519716298149 0 1 0
862 242 2 1 37.99252042994943 4.032680868400664 35.65706007780018 0 0 0
863 243 2 1 37.48804458669852 3.6657562276394886 31.744245081289936 0 0 0
864 244 2 1 30.302021434788387 6.110305093325632 37.54335130676972 0 0 0
865 245 2 1 23.93702443678868 2.0719807712750824 26.87954729639802 0 1 0
866 246 2 1 26.710519613678663 7.265101345179898 30.736134417831817 0 0 0
867 247 2 1 20.47996278120079 3.8103971230950475 24.369341332861655 0 0 0
868 248 2 1 40.12690940262196 5.77459939794502 25.74890982215214 0 0 0
869 187 2 1 26.203347078005212 1.463465764506942 32.591812730815796 0 0 0
870 188 2 1 29.182667509841682 0.494025444839322 29.03448623649758 0 0 0
871 189 2 1 27.175966335952264 6.986953342644939 37.863732500276534 0 -1 0
872 190 2 1 23.63325090047818 1.4938362457805463 28.789343108611035 0 0 0
873 191 2 1 40.99640282508164 0.16231559881909358 31.28132883122363 0 0 0
874 192 2 1 27.644820015858055 0.537666741000259 22.223395141624827 0 0 0
875 193 2 1 36.59737664902741 5.871977492009133 33.65553496941737 0 -1 0
876 194 2 1 25.340938567156186 3.8891153923893014 25.6506872911909 0 0 0
877 195 2 1 36.743618838589875 0.2404130142353136 34.78106117371993 0 0 0
878 196 2 1 31.44309456150503 0.6985911214687586 36.32862020449008 0 0 0
879 197 2 1 35.2649183616263 2.614663570588747 26.865718885365087 0 0 0
880 198 2 1 32.490364380294075 3.4867480267850053 25.78127504616187 0 0 0
881 199 2 1 34.58248636688701 2.480683427223487 37.062547175986275 0 0 0
882 200 2 1 28.170914890163974 2.134504067777844 20.157671783198197 0 0 0
883 201 2 1 27.839802827931315 1.541149418966023 38.95651056918891 0 0 0
884 202 2 1 35.907081309847776 1.5345181593789532 30.618862375078038 0 0 0
885 203 2 1 33.288981673290934 2.0437385815447158 30.81807563376934 0 0 0
886 204 2 1 23.512611809540875 6.822093186845021 37.14147593605278 0 0 0
887 205 2 1 41.131551666004924 3.7584324565118745 38.13493111811422 0 0 0
888 206 2 1 27.225458582813015 3.5757787999140707 32.8839777522458 0 0 0
889 207 2 1 31.316973245498957 0.28936673121650747 20.364934809071315 0 0 0
890 208 2 1 31.200336379708784 2.287111117676818 37.72551817207125 0 0 0
891 209 2 1 21.526845132819187 2.972791080383126 22.104701338642304 0 0 0
892 210 2 1 20.50554508967066 1.7108102072333737 40.969651332829066 0 0 0
893 211 2 1 1.7311285231522242 2.709943456493849 21.314050780791256 1 0 0
894 212 2 1 39.26269618223293 1.8852940354682892 40.86374851486208 0 0 0
895 213 2 1 31.821315325682594 3.017031001536762 32.62240300542596 0 0 0
896 214 2 1 22.88507574898865 3.297945889175673 24.822935172362552 0 0 0
897 215 2 1 32.89309015133627 2.0338088437605912 23.623573020040276 0 0 0
898 216 2 1 27.45351982804165 2.2079009491917794 36.40498082313237 0 0 0
899 217 2 1 37.193529265769605 3.1380231189438086 25.283432935778983 0 0 0
900 218 2 1 27.012500323414347 6.096622985059178 28.3996583089896 0 0 0
901 219 2 1 28.311295316118464 4.364907820798193 28.77901927830184 0 0 0
902 220 2 1 21.933522162032876 3.9582842840659813 35.451813937893135 0 0 0
903 221 2 1 38.51168808038268 1.848684533061608 35.04097203495089 0 0 0
904 222 2 1 22.126322003044418 4.2346158375660545 30.24037442640645 0 0 0
905 223 2 1 38.28093971122867 3.1762747460764458 29.726603207719194 0 0 0
906 224 2 1 30.38997719282461 3.989365647983005 28.959073546586172 0 0 0
907 225 2 1 28.824419294388992 5.288816810701001 32.83435908742021 0 0 0
908 226 2 1 33.973721655589976 4.365867173950871 30.135578636101016 0 0 0
909 227 2 1 35.50930979565406 4.638959522538257 36.08604108709264 0 0 0
910 228 2 1 28.84517718088623 4.036545664622974 34.90239357642255 0 0 0
911 229 2 1 27.087617521990445 3.9490702116128755 21.765013321112953 0 0 0
912 230 2 1 27.342524503423807 3.3458199749473976 39.81624774635141 0 0 0
913 231 2 1 23.385064084151715 4.020749704705254 32.24491391374369 0 0 0
914 232 2 1 32.16164281080263 5.865646177127939 28.800562473975237 0 0 0
915 233 2 1 35.17039407906384 4.018575866946541 33.20303853694658 0 0 0
916 234 2 1 26.283867900350465 4.842412565157273 38.34710243510058 0 0 0
917 235 2 1 27.08767906377619 5.060028724133556 24.21946984109368 0 0 0
918 236 2 1 37.832422695415765 4.617416069250098 27.51129009086071 0 0 0
919 237 2 1 32.879042242002285 0.18797391600835459 27.61364219961571 0 1 0
920 238 2 1 31.20350529668052 4.503013170487677 39.02229792364801 0 0 0
921 239 2 1 37.11861472943679 5.061049496769509 23.529265117165497 0 0 0
922 240 2 1 35.375364976720526 6.819116904915759 22.589495448942877 0 0 0
923 241 2 1 33.639924546533756 0.3296067622839307 38.30887466974133 0 1 0
924 242 2 1 37.52765382055876 4.983119973054415 36.88962777966316 0 0 0
925 243 2 1 37.611835516233235 3.8131073583887285 33.250451339657054 0 0 0
926 244 2 1 29.9209250420906 5.919925344305319 36.015831308816395 0 0 0
927 245 2 1 23.4481259093476 0.6287404495669153 26.660691713343045 0 1 0
928 246 2 1 27.984174626057616 7.1332289617349875 30.00808934065577 0 0 0
929 247 2 1 20.860433701790594 4.3404867716271225 25.74289098971832 0 0 0
930 248 2 1 39.503484400714015 7.212069843815026 26.055688769324572 0 0 0
931 187 3 -8 25.933884598030627 0.9061384803703724 31.82243359284281 0 0 0
932 188 3 -8 29.325037254541314 1.1273826910217608 29.754159557735804 0 0 0
933 189 3 -8 27.739616394619848 0.408257691178217 37.70908272438276 0 0 0
934 190 3 -8 23.754056663192845 1.6086800590558985 29.752303292277965 0 0 0
935 191 3 -8 40.59214189154109 0.8154699696430413 30.669197302474032 0 0 0
936 192 3 -8 26.995728051454527 0.04288328151847545 22.742779470391945 0 0 0
937 193 3 -8 35.86675742133679 6.585746111770573 33.678465030301744 0 -1 0
938 194 3 -8 25.13509010815928 3.525166315334298 26.53767005980428 0 0 0
939 195 3 -8 37.30930803397915 0.5518847275813258 35.52804122801605 0 0 0
940 196 3 -8 31.75094055763358 1.6014056585932415 36.08296682946755 0 0 0
941 197 3 -8 34.527353145980115 2.7854324944018938 27.489441686378765 0 0 0
942 198 3 -8 31.87456206261886 2.914832408684695 25.30141077978052 0 0 0
943 199 3 -8 34.56117877207616 1.5053646270000824 37.05053703362569 0 0 0
944 200 3 -8 28.376151394911105 2.0095564329427043 21.13852591429139 0 0 0
945 201 3 -8 28.234966944408416 2.2233497455525115 39.57621058191684 0 0 0
946 202 3 -8 35.08676330079618 2.0693182929885974 30.4164285456067 0 0 0
947 203 3 -8 32.34979943901836 2.093159402268766 31.116578418688356 0 0 0
948 204 3 -8 23.601927124563073 5.84674276067727 37.19439312817286 0 0 0
949 205 3 -8 40.78944975119592 3.6086119315782326 37.20666590145463 0 0 0
950 206 3 -8 26.461605089365065 3.10633215746703 33.2527910682549 0 0 0
951 207 3 -8 31.353246979674065 1.2439272522649376 20.58618562617174 0 0 0
952 208 3 -8 30.871651337891425 2.6537197919973248 38.59946566258942 0 0 0
953 209 3 -8 22.062407787372933 3.773896963704242 21.931361828113907 0 0 0
954 210 3 -8 21.13181525967483 0.9688985645602803 41.053365793596505 0 0 0
955 211 3 -8 1.2577618866130524 3.4482439381599073 21.738901234376634 1 0 0
956 212 3 -8 39.428620794159194 1.9550587973116067 0.08005826219647674 0 0 1
957 213 3 -8 31.787461349089032 3.2059511225319546 33.58758961650574 0 0 0
958 214 3 -8 23.590641923363744 3.410564099391266 24.151448331708192 0 0 0
959 215 3 -8 33.12225648963403 1.5604725905827743 22.829981191999362 0 0 0
960 216 3 -8 27.225679056313243 3.0730133509689668 35.98600493124429 0 0 0
961 217 3 -8 36.963312552213544 2.4150992999352496 25.92468375705453 0 0 0
962 218 3 -8 27.240285805057585 5.29284117058144 27.847226895933446 0 0 0
963 219 3 -8 28.909723217459412 3.756591983888078 29.3536475221833 0 0 0
964 220 3 -8 22.13441385573894 4.8238319740894955 35.09199964950526 0 0 0
965 221 3 -8 39.25363617486991 2.4928733546237978 34.934411472843024 0 0 0
966 222 3 -8 22.378761075610527 3.4665205264064314 30.835725514381664 0 0 0
967 223 3 -8 38.35732645543012 2.861053351714885 30.628953565329056 0 0 0
968 224 3 -8 31.30006286594073 4.3203594319887655 28.636338766341215 0 0 0
969 225 3 -8 28.412847695439034 4.970439221948687 31.974034255560845 0 0 0
970 226 3 -8 34.60237399135605 5.10317072222771 30.029671883338267 0 0 0
971 227 3 -8 34.8869342331399 4.675654410769578 36.84057404852828 0 0 0
972 228 3 -8 29.480910183494057 4.738366269365602 34.738240806307246 0 0 0
973 229 3 -8 26.97134586033946 4.6060053846524545 22.480368511543638 0 0 0
974 230 3 -8 26.792454960363592 4.173268262949114 40.06203842871093 0 0 0
975 231 3 -8 23.784631183509223 4.266681523859657 33.08271437223456 0 0 0
976 232 3 -8 32.717600732957635 6.662342904047862 28.863032399200883 0 0 0
977 233 3 -8 34.5959590455527 4.279491128932327 33.945672069943946 0 0 0
978 234 3 -8 26.168461842745995 5.18640805492148 37.39140455885533 0 0 0
979 235 3 -8 26.874213560868792 5.463711478453686 25.143683628567292 0 0 0
980 236 3 -8 38.596935729214316 4.253794607046494 27.94909197402865 0 0 0
981 237 3 -8 32.93968057558017 0.7189594682493765 26.709050187966206 0 1 0
982 238 3 -8 30.83580118940062 5.398075701748043 39.23470040901039 0 0 0
983 239 3 -8 37.64758699917967 4.71804673457146 24.226903088174105 0 0 0
984 240 3 -8 35.86172430684228 6.0172762027685405 22.33914045654458 0 0 0
985 241 3 -8 33.02807109546934 0.13733752023861173 39.02098997517626 0 1 0
986 242 3 -8 37.88448610107382 4.999478229070123 35.93250555655905 0 0 0
987 243 3 -8 37.11914578254561 4.208474678679397 32.49393951919568 0 0 0
988 244 3 -8 30.0927463634403 6.5962952864805935 36.71577973450108 0 0 0
989 245 3 -8 23.15495859515924 1.461910614646064 27.047655099216826 0 1 0
990 246 3 -8 27.185584511141275 6.577286192337979 30.186496892231524 0 0 0
991 247 3 -8 20.176898232322014 4.479232538500582 25.068831523114056 0 0 0
992 248 3 -8 39.37720325577076 6.2462173782245305 26.09183827363602 0 0 0

Velocities

1 -4.36053907313209 1.694871459697089 0.7591045270645639
2 -1.3859745383824478 3.9478061668546687 -4.13991808981309
3 1.0987683469761729 -2.107352163950572 -5.211637190110541
4 -1.8064415876206559 7.196051796019513 1.5437807244360442
5 -0.16462965424143478 -6.441209370836045 -0.9886905086265018
6 -2.0833645035434922 2.602533079426611 3.957803500273977
7 10.93509300801176 2.7324041172800895 -2.1965437878466263
8 2.1042940709532307 -3.561973662077599 -3.2190299042560127
9 7.201354587440728 -3.7711718633921762 -2.7630131585515914
10 -0.7549768752748061 1.4345926398753603 4.752411845076886
11 -3.0964466402200768 -0.8627767848016806 -4.083577363862547
12 0.6245587146304578 -4.417736961934805 -0.19926288693838282
13 0.11351316423830028 -4.635090752687185 -4.290892886067207
14 2.3632987495531825 -5.964251545308786 2.9856601407430308
15 -1.8905027543726562 10.32552892016102 -6.310460090844204
16 6.202610054523113 -4.3161123888789374 0.41763410064841927
17 -5.119311567249641 -1.8943503765678797 5.042284332623144
18 -1.193337820429612 3.823301825238418 -9.146145260714887
19 0.0017767787107315237 7.933201691992116 -4.759790979030521
20 -9.170022071120565 -2.5104038436935285 -4.909650825436159
21 -0.7544177251593107 -6.733314743301997 2.966352538860786
22 2.4915388913617553 -10.1084017668997 -1.9446167348607004
23 1.6514978683048958 0.6982990045111516 -7.859225879348684
24 4.215592065373753 -0.6072357801592706 -0.4017187797827096
25 -2.7210237304380964 5.104634337259972 -6.845435367531969
26 -2.164462726953682 0.7139805991813115 -2.221716710877727
27 4.3836752308192395 0.9330387055434649 -3.9655407555317823
28 -0.9349265821478967 -1.946329396913327 -4.11845931654877
29 1.092080926283601 6.605560746794785 4.261257803767941
30 0.8194508879015874 -6.787716099503532 -2.6240577065472293
31 -2.0056723562880783 -1.4019197080932475 -2.59282435303301
32 -6.475421750089154 0.11835560197155134 5.1248488212507235
33 -1.0034969999645025 3.9128122598379234 -2.3204450493257087
34 -2.1669435365546854 2.297515228362645 3.199388945024137
35 -6.5567222000308405 2.221509814622911 2.5414697538506363
36 -3.1144335468786135 -2.4092014564407767 -0.8256965187057665
37 -0.6142418297947368 6.120452589838403 1.2690670775525925
38 -6.074214793327495 -4.197394510932599 0.06167253718960156
39 4.575845590893403 -2.8823618542355307 -1.7403087306207088
40 -4.926684408407212 -0.5764119514613502 0.05989808504760342
41 6.238177433639899 -2.7616525357061823 3.2054966697173093
42 -6.784414360389247 8.636252844043408 -3.9961721684832816
43 -9.046620864247336 -1.0186294980423143 4.708345553109694
44 1.7038586211964488 -3.3242098476886066 -4.9833909565091306
45 0.05455425803941873 -1.205446012794569 0.13116367302606935
46 4.749393218354637 6.928485591065278 -12.385359511193897
47 10.431213954220922 7.615414864580977 7.925116045311604
48 -4.468246238321132 1.317582515467704 2.850107081368381
49 -7.445452894310618 -2.1139346378837494 -1.4933401993301292
50 -7.570264176403222 -3.2281557912253303 3.4303654807269988
51 0.9192928779528923 -2.0915262080562145 -4.608029573914143
52 -1.845749248477229 1.9954482817329802 -1.3059977700695036
53 1.2651388123384932 -6.2392218132304285 0.5353882369766179
54 0.13721878150939862 -3.4793898800909147 1.9048920608771531
55 -8.60348419054304 -4.073508675432479 -3.8516446506655497
56 0.5132970975192512 -0.9536262605377865 -4.960646082735206
57 -8.021431757703201 3.1471202682018924 5.1409933949383095
58 1.3428220344704818 7.416210845981151 -1.5188878547806715
59 -0.1388422994256147 0.9353715785198686 -1.5449655249937821
60 -6.798022052614842 -3.1416238976707307 1.298933443624142
61 2.813057330241678 4.712571676341947 -4.806044087223169
62 1.3704380669591685 -1.79390884275783 0.18384265681965287
63 -16.910015569149955 -7.4016698931449385 25.772584150191587
64 -4.213851137825162 2.6022347431790656 -3.677945235795403
65 22.426912781619354 15.224897732260875 1.4030006207341288
66 -33.15894275553038 15.019285781516135 -2.637590770816206
67 -10.083675549715286 -0.8200935712743582 5.20335837842228
68 -6.031946860750025 -10.082226549497282 6.479733590943109
69 8.953202029561876 -15.35129264040936 -23.777879493105736
70 16.077908638454133 10.296160181755093 3.9406972058812535
71 -14.448699012108984 -11.130129419990606 -5.709525421781071
72 0.8942348658089634 10.603719192827475 -5.3598595619614
73 -7.066920411419807 12.312464367812392 6.555939795511055
74 2.448877592852815 -5.5748512305451765 0.9235961072554455
75 -6.271387122996989 -6.70005321886642 14.744424360504913
76 -0.5939978781001136 0.31455567130850925 -8.537514726132246
77 2.2732338582068303 -1.634166987764043 4.083487398148531
78 11.578381886941422 -1.6170424512988166 16.763948370162833
79 -4.359207858542799 -0.8130711586254453 -17.08516112544146
80 -12.641889627553743 4.718293355915012 -0.10178444568665267
81 13.337012452710017 -0.14439520207431342 -28.109501171521647
82 -19.383224435545678 1.2383188992502148 2.5885001396022522
83 10.631153616905493 -1.474187692431273 -5.617201541894742
84 5.284915943642774 -12.82894816760834 3.407029898447921
85 2.29634846361807 -29.654498344089948 11.293582835516215
86 -6.202705289478336 0.6029130373727629 -10.764484515214534
87 13.14741812923633 -10.431909832059777 4.738020069636232
88 -10.634617256663214 8.097335083620864 -0.6733130569079603
89 -15.294534936178986 0.19280105032199368 1.7119882748852882
90 -2.931587709511456 1.3902932039847449 -0.9628360461871657
91 0.5278537652050052 -5.285477243651633 -2.5040975510993264
92 0.33039160661641853 -19.066634709066488 2.4822489452450016
93 22.045454303438493 -9.055711651817534 -10.135600239433979
94 6.397847740811675 5.650879492193385 -8.826638651975435
95 7.235811320991847 21.88515871970575 -8.468717937326053
96 -10.340569642527736 6.65858521043284 -7.900372213643334
97 -22.07477259885795 24.62031404235837 -5.153283136458424
98 -2.81571674650009 -8.377088126814613 -24.07046745788803
99 -12.454588319902918 7.464686957941024 12.643319312901875
100 -14.642200647949682 9.673254218689932 21.759254775716325
101 12.071792922151808 -5.704204622900369 20.499273052632045
102 8.014478759229288 1.565268058089648 22.27590656518592
103 5.423428557812744 3.9445303032978063 -3.151304525594434
104 4.7267235339691505 -9.023028952662441 8.927840238890381
105 -12.979448487766511 11.680089448585614 4.891077403163719
106 -2.480451818880539 10.031422064179095 -5.345602782184566
107 15.446101156961898 -3.6081474105264273 18.547833487116957
108 5.242151397725522 10.437869050144014 -11.845556651259818
109 6.385632989192493 4.388230304940181 13.95305839512973
110 -9.518354630262559 -11.513787018679695 11.970839895809249
111 -9.452635178183984 -7.533075795471159 20.629872447397204
112 -2.5933435171887345 19.071404474023524 -2.8560185606532085
113 4.5110189771851195 -3.0555057059446726 8.274389469593373
114 -9.459916541372957 -5.0397700837921064 -1.022409614342538
115 1.390547174836313 -4.065077865062458 -12.93898932425679
116 15.684013454661812 11.877231083640776 0.7005590948055183
117 25.600071000635513 -14.802190285137968 -10.851198134054357
118 8.437130495704976 21.71354886998491 -0.4788617952242576
119 12.578721569865918 -11.387160345046539 16.729856802513854
120 -11.35795867584952 -12.654903482440679 3.417928143020358
121 -8.425066630634907 -0.6553596662092446 0.32810900225427647
122 7.0708978501760384 2.3949450225222333 11.338610445577311
123 -0.3571325712735407 -12.615485828871135 11.83220380088498
124 -2.089326387096998 7.441495038080509 -1.0560903569289557
125 4.785771966972362 11.111178870825713 27.90241118063961
126 -11.202625012475474 -0.777970955753624 9.748204069754356
127 -8.754227784167123 12.91683466761557 -22.73828962258245
128 15.847864227623065 7.243925229529315 5.732340461596835
129 -7.847277747714027 9.104638049323336 4.469325848505118
130 -4.559790354250781 17.768260051572295 3.116514101570445
131 -9.083041166635615 -6.044309920266492 19.140312039331604
132 -15.264609465956827 8.484634620057975 -22.997499718073417
133 1.8038146494769352 10.601632041570113 -10.995885126946899
134 -0.7797614959417563 0.8049477412081836 3.139298268558849
135 -17.26880835343877 12.071342493751295 -3.557922795327324
136 4.221857322815482 5.323144410816342 -2.451200044962446
137 19.330637426530522 5.863687195924256 -11.204056480456105
138 -19.732540285477782 14.408138629832766 -0.01571711592318681
139 -12.434825171680828 -12.370317489274399 -3.1574365961797857
140 7.115626072127546 6.587963946777877 11.904166873818667
141 -2.3529592228391727 -22.303030796927676 4.93466734164414
142 1.7766943375231785 -3.053646861993101 -14.500573292787065
143 12.7132160551842 -26.096623433459428 17.63300072760925
144 2.2697516222103524 14.469192619101275 -12.063991933637956
145 -8.773894370711874 -2.7599105071394274 19.61689149144108
146 -5.602780782167758 -3.829646473341349 0.15464433933374713
147 -32.424989458745266 -10.34369311805894 -7.365069577457104
148 11.641767755543034 -6.245262929063884 27.23239847962215
149 7.676714600391489 -1.571827586409001 -7.912182420107058
150 -10.086645709498603 7.94918903756312 0.9748681672101941
151 18.900787645418465 -10.619725512677004 10.083632052350067
152 3.999514121931697 -8.858707900960052 15.591428442138428
153 -6.656509623739817 9.189981874082148 10.456930745644053
154 7.365164798507275 9.249784095126737 2.0176664357450433
155 5.639501121297775 -6.422770063373121 6.83408321244882
156 7.680590371164576 3.505432768432311 -10.830282671821507
157 3.5943668871740293 -7.117649587278246 -16.489288067700887
158 -16.686665792107785 18.80176179288584 -6.844151632683591
159 -7.468210199571678 -2.470753528298294 12.963987750457791
160 8.499405183198528 5.814921820231223 14.835441532939198
161 -11.485808770338748 4.62682076643201 17.942733190344413
162 -6.996919105769907 1.429997558686363 -9.52151046621976
163 6.3003539327213725 -7.89214056724138 1.4875567160241063
164 -4.530403553836983 -2.066552935854843 -0.0024326939297815136
165 -20.175622724151292 -17.019971966060012 5.651123817571756
166 -13.282025613869425 -8.938047606449452 -1.118337758554163
167 -6.81187466301249 17.3589020410532 -8.843622018133244
168 1.505845358930386 -2.0644133049479856 -3.051500267629177
169 4.090334143117458 -14.641684199686948 -4.870516844105862
170 0.34256677854803236 2.9859751568602713 -8.558306987949882
171 -23.5913945955179 -2.2697161989884753 -9.142656609269723
172 -3.6930081733421023 8.19039423805263 6.747041282455443
173 -21.25028529890734 4.761564704574463 -32.38276901899295
174 -18.795667216249512 -26.492944285136428 -8.464933899770514
175 13.018799757528514 5.757017849974998 12.00705317786851
176 9.322624764449259 4.5735727402388635 -4.409568909638031
177 5.367549323784579 -2.656948754269508 33.165157215807255
178 -5.970871094163849 -7.436559931342803 29.40265457067497
179 10.599508209160577 8.142873301580241 -17.36954878718085
180 -16.241161874285748 -2.2018991036783575 -2.9689886667813576
181 11.349551604378796 -17.845297870719747 9.475127947142827
182 1.6620730161677677 -1.7042563457601585 -12.30774124246636
183 -3.025756040659979 1.7682527315906411 -0.19614199120037115
184 21.44273081236137 8.50039166784014 11.414278469749991
185 -14.793542904092648 -6.15259005593749 -5.46726922621747
186 -14.454002765977542 -12.726114048982192 5.352448372173774
187 -4.36053907313209 1.694871459697089 0.7591045270645639
188 -1.3859745383824478 3.9478061668546687 -4.13991808981309
189 1.0987683469761729 -2.107352163950572 -5.211637190110541
190 -1.8064415876206559 7.196051796019513 1.5437807244360442
191 -0.16462965424143478 -6.441209370836045 -0.9886905086265018
192 -2.0833645035434922 2.602533079426611 3.957803500273977
193 10.93509300801176 2.7324041172800895 -2.1965437878466263
194 2.1042940709532307 -3.561973662077599 -3.2190299042560127
195 7.201354587440728 -3.7711718633921762 -2.7630131585515914
196 -0.7549768752748061 1.4345926398753603 4.752411845076886
197 -3.0964466402200768 -0.8627767848016806 -4.083577363862547
198 0.6245587146304578 -4.417736961934805 -0.19926288693838282
199 0.11351316423830028 -4.635090752687185 -4.290892886067207
200 2.3632987495531825 -5.964251545308786 2.9856601407430308
201 -1.8905027543726562 10.32552892016102 -6.310460090844204
202 6.202610054523113 -4.3161123888789374 0.41763410064841927
203 -5.119311567249641 -1.8943503765678797 5.042284332623144
204 -1.193337820429612 3.823301825238418 -9.146145260714887
205 0.0017767787107315237 7.933201691992116 -4.759790979030521
206 -9.170022071120565 -2.5104038436935285 -4.909650825436159
207 -0.7544177251593107 -6.733314743301997 2.966352538860786
208 2.4915388913617553 -10.1084017668997 -1.9446167348607004
209 1.6514978683048958 0.6982990045111516 -7.859225879348684
210 4.215592065373753 -0.6072357801592706 -0.4017187797827096
211 -2.7210237304380964 5.104634337259972 -6.845435367531969
212 -2.164462726953682 0.7139805991813115 -2.221716710877727
213 4.3836752308192395 0.9330387055434649 -3.9655407555317823
214 -0.9349265821478967 -1.946329396913327 -4.11845931654877
215 1.092080926283601 6.605560746794785 4.261257803767941
216 0.8194508879015874 -6.787716099503532 -2.6240577065472293
217 -2.0056723562880783 -1.4019197080932475 -2.59282435303301
218 -6.475421750089154 0.11835560197155134 5.1248488212507235
219 -1.0034969999645025 3.9128122598379234 -2.3204450493257087
220 -2.1669435365546854 2.297515228362645 3.199388945024137
221 -6.5567222000308405 2.221509814622911 2.5414697538506363
222 -3.1144335468786135 -2.4092014564407767 -0.8256965187057665
223 -0.6142418297947368 6.120452589838403 1.2690670775525925
224 -6.074214793327495 -4.197394510932599 0.06167253718960156
225 4.575845590893403 -2.8823618542355307 -1.7403087306207088
226 -4.926684408407212 -0.5764119514613502 0.05989808504760342
227 6.238177433639899 -2.7616525357061823 3.2054966697173093
228 -6.784414360389247 8.636252844043408 -3.9961721684832816
229 -9.046620864247336 -1.0186294980423143 4.708345553109694
230 1.7038586211964488 -3.3242098476886066 -4.9833909565091306
231 0.05455425803941873 -1.205446012794569 0.13116367302606935
232 4.749393218354637 6.928485591065278 -12.385359511193897
233 10.431213954220922 7.615414864580977 7.925116045311604
234 -4.468246238321132 1.317582515467704 2.850107081368381
235 -7.445452894310618 -2.1139346378837494 -1.4933401993301292
236 -7.570264176403222 -3.2281557912253303 3.4303654807269988
237 0.9192928779528923 -2.0915262080562145 -4.608029573914143
238 -1.845749248477229 1.9954482817329802 -1.3059977700695036
239 1.2651388123384932 -6.2392218132304285 0.5353882369766179
240 0.13721878150939862 -3.4793898800909147 1.9048920608771531
241 -8.60348419054304 -4.073508675432479 -3.8516446506655497
242 0.5132970975192512 -0.9536262605377865 -4.960646082735206
243 -8.021431757703201 3.1471202682018924 5.1409933949383095
244 1.3428220344704818 7.416210845981151 -1.5188878547806715
245 -0.1388422994256147 0.9353715785198686 -1.5449655249937821
246 -6.798022052614842 -3.1416238976707307 1.298933443624142
247 2.813057330241678 4.712571676341947 -4.806044087223169
248 1.3704380669591685 -1.79390884275783 0.18384265681965287
497 -1.2944345201035379 -6.43846265851593 0.3281987860386878
498 3.8429092180774997 2.016064935771942 -1.682130303664148
499 1.1841753423478993 3.1625642973769597 -3.403261888776567
500 0.92355420386761 -0.28135733463996515 11.005912209304702
501 1.5741510489064512 3.0894829500992205 1.6145103869542303
502 -1.659227130469875 4.805953450736375 4.686897012272341
503 -1.1248293377156493 -11.912502281261117 -4.354559180914225
504 1.2058002416012972 -7.433135389912357 -1.3286398244140853
505 4.863450044204137 -0.5817288724886328 0.8004820879508276
506 -4.289585777332941 -3.380542470173285 6.615566657238604
507 -7.701592790535581 -0.9330685303995317 -2.9574152467873134
508 4.102730372697514 -3.535580834442979 1.8698947809666921
509 -7.9032087372811315 -1.1797137076558875 2.10391505903656
510 -1.681324823216548 -1.8908753900739728 -3.6551826642265017
511 4.2832324383076035 4.269032563208818 -3.4825506474149903
512 2.8043839368621586 1.6886250883913703 2.047039423142919
513 -5.420523637430431 3.002013014751193 3.113437538630006
514 -2.3972444082041204 6.3907190083727965 -4.764028256684009
515 0.41769378185859146 4.659538421314344 3.5818512726397835
516 4.1458091391868646 -0.6274244834714359 0.5036696221672344
517 4.529378777740977 1.8676433925063443 6.175627627888129
518 3.9737388562747475 -1.0106656928112219 5.971130469143817
519 1.421286253947652 -1.2361707835833529 -3.075498417493882
520 0.7053637931180756 1.3024654773330147 2.752766578011162
521 -0.4592780540963532 -6.395372890548363 0.3659047180049069
522 -6.435845886770538 -3.390990539339885 3.177080355404634
523 -1.0006013875102109 0.1643561785556678 4.2956273679525125
524 -0.39774018814745193 2.3351976575082594 -0.4411277569378875
525 -1.9884216593063522 2.97258224380734 2.2312310329350895
526 4.434355837642234 -5.4432244599397155 3.4397342298272204
527 0.5486405600364935 -4.079481277489994 -1.6906314148962684
528 -0.8417949953826015 3.1258602196547227 -2.682219446340183
529 -3.2683057372565623 2.155619059985436 -0.7446402299855099
530 12.534123494189412 -7.73581468073355 2.787702770435668
531 2.747115662390279 3.8787322051011452 -0.14258104846772574
532 3.49878817259386 1.9694692264883988 -0.2697702588343859
533 8.418269577502922 -5.08759453232573 2.9738089223361523
534 -3.8833256963667195 -1.4658015913983005 -0.2277791892224668
535 0.9742603897480083 1.5812176566941971 -1.3815476472631036
536 2.429363010480583 0.46412489589645095 1.2328881185631728
537 -4.667375041323262 3.280402369736002 3.898060064069594
538 0.4292233352106802 -0.14912156721631803 -0.15770450371907446
539 -2.0551107359095795 1.6675335460395613 -0.9419754064995255
540 0.16557250705584733 -4.7377651855190015 2.582647332960608
541 -11.738110400215884 -2.095085294223663 -5.960651933283644
542 3.383006879760426 -0.5298155898743947 4.466698239785273
543 3.282115010214217 -0.20324807590788746 -3.825327794243183
544 -4.706354883649239 4.090351160652578 -2.5478717448826536
545 -6.72098425792755 8.104967165057868 -4.552929863883672
546 0.5458465711770424 1.1140474947817252 2.3452402917605455
547 1.2713313751506412 11.304946556587433 -3.3954934352380617
548 -1.2161759249495643 -1.2926167085974394 -3.01962149858738
549 -1.275530047978973 -3.6540534893686485 -3.5507384313179005
550 1.4113000156259643 -0.9436855414683094 2.831744099726827
551 1.7343140678883946 -6.368426096906269 8.401892340686988
552 -1.757144269808485 -4.09879192242249 -4.662335315836699
553 -0.05023971255508392 6.720585703408542 -3.577848366095463
554 2.459605871188064 5.050228817459298 -1.8207005456807928
555 7.523667597868934 -4.369261314203126 3.588292742199079
556 -2.866512111530808 5.61644108844572 1.703611894772202
557 -1.3038861474452312 0.3006531412030615 -8.636721548909627
558 2.522727542374267 3.374648901612258 0.3512276245396028
559 6.173667447633818 -29.880610770677123 -10.125380564197012
560 4.409515120735188 8.810137105256372 5.401072635411852
561 -3.926512063921151 -7.723556132665578 -8.136367200297741
562 -7.524102631490833 -1.4076546867065463 -6.075408790157836
563 13.70402668163522 0.3824330310967628 15.50693497042282
564 5.4358448961479375 -5.6326565138620115 6.126989694238921
565 -2.866350478594173 12.556950121777263 -11.192960160279316
566 -15.196463096905589 16.592186322756152 1.358461186487643
567 2.1230835227156897 15.496276711648315 -4.079843649372074
568 17.35124524651354 10.118713585613664 -10.34884806812591
569 -3.229804306285074 -7.150845007401298 3.5890662223136585
570 4.177057954202936 -10.872617255781785 12.345857385716746
571 -8.638187786603696 4.05728074238172 4.186889159194665
572 16.918798771442617 -2.5415272909771054 -18.188475204837648
573 14.722497898886425 -9.2619437862555 15.506035571577026
574 0.5656996798332439 -4.369624553921017 -11.688157557594055
575 18.201477307734944 -10.086183837994358 1.7751376925906022
576 9.00058577191543 2.5255986179297922 -14.810118768834448
577 -3.922399855577897 10.223923714932551 -6.248079474754296
578 21.485894431982384 9.299944886907188 8.785554705673553
579 -4.233918915690596 -18.383038992610704 5.227240841780793
580 26.139487219487865 -8.222583508526187 -11.963996145223271
581 9.792798912292183 9.486138332983575 9.921313128316944
582 11.357656856271712 6.074594039634289 11.348488081805987
583 13.821986153329235 3.642121766167386 -13.70454381744822
584 3.305871229044746 -0.2022885590268627 -4.9761605707276715
585 4.170190535299568 -12.053025948860757 1.7458547247696445
586 2.3978279792094717 9.076162344566011 -18.15773309428992
587 1.659997770612603 -7.907219447702357 -6.998090657233091
588 -10.47004513463536 8.102734682994871 -3.542439494094028
589 20.69115123604742 -13.193773747118863 -11.626702091957137
590 -4.172170941255271 -7.910236891665023 12.63199958122343
591 -4.955936179678006 17.20861077696611 5.062995493752424
592 2.970061750491395 1.6576759483781118 12.017845323371684
593 -25.07647101144533 -2.9105387619874463 7.2552822153560514
594 20.752594658811677 -8.768356521785446 18.55391139660183
595 26.946271108236747 -6.743544879594481 -12.08639891794603
596 -14.625705318796781 3.4861215992295747 10.911308946551111
597 0.05313487283481273 -3.7755995773370903 2.4738617196299018
598 -0.5799585582425373 1.4239297394707913 15.334688799415927
599 -6.574386220063656 3.328776161699852 10.310152226049032
600 0.6833964010513793 -5.29014013350415 -8.195027804171295
601 12.617456702530733 -2.3293604335918157 -3.180528158029703
602 -0.7839914218201831 -1.7740058342613 -2.607112028275482
603 -10.972950467223276 16.17588223048319 7.593180803729717
604 3.411716420042238 -0.5494598784188092 13.8846871770626
605 1.382927734475219 1.2975911001017497 13.975805596494284
606 -1.9539733806815496 4.7946613100573465 4.044948879397805
607 26.537038848047622 13.283199397644477 -13.203900329134228
608 -0.11150023372930971 0.30305941877288395 -7.696568709623715
609 -16.167118726223 -3.808872940326981 3.382442932443089
610 5.4792446526121426 -7.258183989509757 12.093629821195604
611 -5.862214262834707 -14.757973683374859 -23.48220978461228
612 3.467255300672823 8.364791247647846 10.816460605072782
613 -0.5545254011525665 7.427229491241834 -4.126159882687033
614 14.978340705736638 20.1893916157527 5.202963530064935
615 -13.473264611346135 -7.415291587952813 -1.2646800548475943
616 -10.052678623494746 -0.17718614515741912 0.5197612842923288
617 -9.978990067968601 11.908845672629576 -0.5360346409295559
618 -8.438900472394646 -1.2953156954036413 12.839508740653708
619 2.457757066850401 1.7607630241276915 6.473133449210845
620 3.8412413868148163 -12.277965042460004 0.6644148322815298
621 13.896453519385611 -11.372023528386968 -6.87542994145783
622 4.716303254397593 -16.18774466493599 -3.7489047184362008
623 5.975476943426828 2.7123215169403982 -11.055190345153072
624 -5.637464468628774 -0.8365992589069146 1.88482992333699
625 1.0489352758273232 14.044543104255153 -5.912915015585689
626 -10.772330057233772 -7.723071656062369 -15.627069486543855
627 -12.787749620633534 -6.628116028417161 -9.589234618974231
628 8.751330182659693 7.918458977094982 -0.8392742253288692
629 14.076179708266869 -7.4249311778889515 -0.30924187706363043
630 4.6145969351786515 -12.453123779329964 10.307165913456815
631 -16.715418004868177 -1.9425009141029836 1.4415847385074267
632 4.728260264260987 -3.2153307668708897 -8.234796426407515
633 2.3231706128469294 -11.727413609675342 -5.349574301303472
634 -1.535976402668411 -0.08129395612094274 13.71787457498941
635 -12.95445190105658 12.689209915588277 15.91806688978785
636 2.297083568368162 -3.016303458596366 -14.121437754369882
637 0.7474887228414852 11.119070270980282 -5.5360622680207925
638 8.16685759362709 6.637891246585727 7.572432190593282
639 -1.218590560379321 -8.228974819460563 17.303175672755135
640 -10.869612216049818 -5.930166427606886 5.215370466769996
641 2.0435516050031404 0.5301009032678556 -12.014659254010303
642 -11.699276186764656 2.0222709209764864 -20.781458066178104
643 -11.820798001938094 -19.087736708511624 10.633040439866214
644 -21.64808518620459 6.074046809456435 6.130617504510749
645 -4.3793373793995025 -16.14490941423768 1.9332442504836937
646 5.132146310160794 8.017872132795649 22.055860707677713
647 4.081836091563638 -7.902809248666213 -3.286648174805371
648 3.523215769327337 0.4120628914270376 6.94473624225925
649 -8.10529453758085 -5.295777755440115 6.886803121671667
650 4.871836597287388 -2.7533665541427697 -21.60471015378783
651 16.46299028140403 -8.126426346959551 -7.031540136997624
652 7.983668873897365 15.76296496212383 -4.295163645037213
653 -3.8242713281351604 5.480054544501957 11.283228834872938
654 -2.0962635502646174 -9.813157405606733 4.4629063197915
655 8.26411464224274 -10.609503506425291 17.48839317758501
656 8.106949313325188 8.79314202665117 -16.321922219142024
657 -0.8175061594025692 -8.674601299776945 8.774008703427025
658 -1.4050857705113027 -0.3840674934210038 -10.932104637271488
659 -4.953950128807378 7.423692255693723 14.628309956550384
660 11.316041781854137 1.9077647739526193 3.2503509002073976
661 -6.307519230776006 8.746725629186788 -7.850146903723071
662 0.6337436150121699 -6.217065317980419 15.833347817718552
663 16.680944153093865 5.6422138850311665 -1.9167193847434523
664 -11.174776436333739 3.3851982063263346 -3.0981810318311602
665 -3.0192822305289737 -13.785233250433606 11.860671592028188
666 0.9312155782352309 -9.097595452667994 -0.7953940561286502
667 -14.473186046247843 -12.397921032997193 1.5508489179581995
668 -8.23111538351291 -2.1655791193313405 -24.46114693431407
669 2.1816305257971123 -9.438291908263434 -2.280250110644505
670 12.57655868545242 -2.1853319961696687 4.246067126498443
671 -8.207909870145988 7.058317573850958 -4.591086242783008
672 -1.7439090271496132 1.9562537362024126 -20.468893079737164
673 -1.7415106228060189 4.75867569223194 -27.327845122451187
674 0.8195523027025868 -0.9278911851569452 -4.03632661012193
675 -6.754873709584151 -2.374694299294106 39.243782572166104
676 1.0627934841979882 13.243156901471409 4.396726510396318
677 -2.5542061440279173 3.2917254249304473 12.292919894895507
678 -11.275474865128794 -1.5317993616905217 7.3652763905311325
679 0.8965261891572176 0.59818024248306 4.557622119487319
680 11.329411780676741 4.171079687009958 -1.5338218469291602
681 -13.684640228726114 21.803097399202663 19.170076416131263
682 11.476357226884193 -19.194167887672553 1.6491056133265993
683 -1.2944345201035379 -6.43846265851593 0.3281987860386878
684 3.8429092180774997 2.016064935771942 -1.682130303664148
685 1.1841753423478993 3.1625642973769597 -3.403261888776567
686 0.92355420386761 -0.28135733463996515 11.005912209304702
687 1.5741510489064512 3.0894829500992205 1.6145103869542303
688 -1.659227130469875 4.805953450736375 4.686897012272341
689 -1.1248293377156493 -11.912502281261117 -4.354559180914225
690 1.2058002416012972 -7.433135389912357 -1.3286398244140853
691 4.863450044204137 -0.5817288724886328 0.8004820879508276
692 -4.289585777332941 -3.380542470173285 6.615566657238604
693 -7.701592790535581 -0.9330685303995317 -2.9574152467873134
694 4.102730372697514 -3.535580834442979 1.8698947809666921
695 -7.9032087372811315 -1.1797137076558875 2.10391505903656
696 -1.681324823216548 -1.8908753900739728 -3.6551826642265017
697 4.2832324383076035 4.269032563208818 -3.4825506474149903
698 2.8043839368621586 1.6886250883913703 2.047039423142919
699 -5.420523637430431 3.002013014751193 3.113437538630006
700 -2.3972444082041204 6.3907190083727965 -4.764028256684009
701 0.41769378185859146 4.659538421314344 3.5818512726397835
702 4.1458091391868646 -0.6274244834714359 0.5036696221672344
703 4.529378777740977 1.8676433925063443 6.175627627888129
704 3.9737388562747475 -1.0106656928112219 5.971130469143817
705 1.421286253947652 -1.2361707835833529 -3.075498417493882
706 0.7053637931180756 1.3024654773330147 2.752766578011162
707 -0.4592780540963532 -6.395372890548363 0.3659047180049069
708 -6.435845886770538 -3.390990539339885 3.177080355404634
709 -1.0006013875102109 0.1643561785556678 4.2956273679525125
710 -0.39774018814745193 2.3351976575082594 -0.4411277569378875
711 -1.9884216593063522 2.97258224380734 2.2312310329350895
712 4.434355837642234 -5.4432244599397155 3.4397342298272204
713 0.5486405600364935 -4.079481277489994 -1.6906314148962684
714 -0.8417949953826015 3.1258602196547227 -2.682219446340183
715 -3.2683057372565623 2.155619059985436 -0.7446402299855099
716 12.534123494189412 -7.73581468073355 2.787702770435668
717 2.747115662390279 3.8787322051011452 -0.14258104846772574
718 3.49878817259386 1.9694692264883988 -0.2697702588343859
719 8.418269577502922 -5.08759453232573 2.9738089223361523
720 -3.8833256963667195 -1.4658015913983005 -0.2277791892224668
721 0.9742603897480083 1.5812176566941971 -1.3815476472631036
722 2.429363010480583 0.46412489589645095 1.2328881185631728
723 -4.667375041323262 3.280402369736002 3.898060064069594
724 0.4292233352106802 -0.14912156721631803 -0.15770450371907446
725 -2.0551107359095795 1.6675335460395613 -0.9419754064995255
726 0.16557250705584733 -4.7377651855190015 2.582647332960608
727 -11.738110400215884 -2.095085294223663 -5.960651933283644
728 3.383006879760426 -0.5298155898743947 4.466698239785273
729 3.282115010214217 -0.20324807590788746 -3.825327794243183
730 -4.706354883649239 4.090351160652578 -2.5478717448826536
731 -6.72098425792755 8.104967165057868 -4.552929863883672
732 0.5458465711770424 1.1140474947817252 2.3452402917605455
733 1.2713313751506412 11.304946556587433 -3.3954934352380617
734 -1.2161759249495643 -1.2926167085974394 -3.01962149858738
735 -1.275530047978973 -3.6540534893686485 -3.5507384313179005
736 1.4113000156259643 -0.9436855414683094 2.831744099726827
737 1.7343140678883946 -6.368426096906269 8.401892340686988
738 -1.757144269808485 -4.09879192242249 -4.662335315836699
739 -0.05023971255508392 6.720585703408542 -3.577848366095463
740 2.459605871188064 5.050228817459298 -1.8207005456807928
741 7.523667597868934 -4.369261314203126 3.588292742199079
742 -2.866512111530808 5.61644108844572 1.703611894772202
743 -1.3038861474452312 0.3006531412030615 -8.636721548909627
744 2.522727542374267 3.374648901612258 0.3512276245396028
249 -0.9780658111513421 -6.7423029620648975 0.6779071950069574
250 -2.084495544407568 -1.2223842878899467 0.2850240042194099
251 2.587251997872958 -8.817052142290882 -0.30175113420529365
252 -0.6141663517175542 -2.217236441565668 -3.1647325054600746
253 0.3816438705060435 2.4353259208307274 -8.057789101924545
254 -0.6148910652660303 1.3496962786553488 -0.09235424634666553
255 3.2965535503584986 6.73013454636491 6.31268973189589
256 -1.229572780125718 0.9686996619676532 0.9012468319730267
257 0.05885183585938693 2.2877436260582646 0.36571754617667623
258 -2.04412030612244 1.1013537805224336 -0.16087668395342053
259 -0.7127404441017943 -1.7018049402867748 -4.713277744420531
260 4.249135755227007 -5.622783519319422 -2.124264065204351
261 0.6916548808112095 -1.2525578231946342 -0.7732525147560977
262 3.7457341498313137 0.3659753236832195 -6.221237883897768
263 1.26390201141061 -4.159969104815842 -3.7050557147945686
264 -2.027672376991472 -2.2297069276582784 8.058199895729695
265 0.8030117109141146 -9.892386072479665 9.223215711359385
266 1.1202029110090186 1.7888223125458271 -5.067415827489906
267 -1.461449322816285 -8.478435497898257 -5.768953309611843
268 0.9720448466608735 -4.045706439343103 -1.5377226374418858
269 1.4942078731634865 -6.512077157346936 1.805329790311785
270 2.421712394696407 0.5988449198675306 -2.017505700359024
271 -2.742435908970805 -4.7429517008453175 1.1693413187647983
272 -2.62895646710876 -1.3529470724165529 -0.08101054856590284
273 -3.7615976012844756 -5.128191680290833 3.484580188755338
274 4.135374435353664 -0.7640797837660153 2.1989206828970698
275 -0.35064023474647077 4.737940578943737 -4.31764738785548
276 1.6584127033140845 -1.0528093475586044 1.8771867646063038
277 -5.603870220136014 -2.66179223122158 -0.3855740315455509
278 1.6013999791245148 -4.367903815224754 -2.0739828169801755
279 1.2839434932117504 0.32060096728339943 1.2974412254020258
280 -5.772609710491176 7.041090447155034 -3.171735589751627
281 -0.6475635680864613 3.839927292851028 6.21415750096519
282 3.509624451014696 7.7896085630799465 -1.8017806283558722
283 8.913400608148816 2.2162264921911103 -0.9645478546585653
284 -2.284389550863861 1.1396942673294173 -1.780262125311042
285 1.4992751014985564 -2.074731199623127 -3.4855582986691336
286 -3.178863153974342 -1.845350693687459 -2.006316905834401
287 -4.2363955260785735 1.8027520441844067 3.7275051036861555
288 1.7013230105605945 2.8055548667133614 -4.632999395543324
289 -0.8234136572009801 -3.3489887997871746 5.328811163177607
290 -2.1317753420485337 3.071627969457447 -1.6385603833183275
291 -2.780843025594821 -1.8777003961062628 -2.4456852387994186
292 -0.7589759473363841 -0.6986270872832031 1.9345820229335782
293 1.5757147999490604 -3.634297360482021 5.95452129902018
294 1.8235668047661766 -2.181051169833844 6.29424805748797
295 -1.3527207804791919 1.8164930480300565 4.7694326299764125
296 -1.3507588463513875 2.1236444841183584 0.44391573064658923
297 3.824043946789121 1.853640068295232 -2.8103816297983193
298 7.731267962603277 0.6020065712212168 5.95143062403178
299 -1.4865630223884878 -1.7148707276466375 -2.2081657449519434
300 -1.6299703063930633 0.5654934558833659 1.6842523756547616
301 4.756190488266133 -8.511810683446027 -2.634972274317661
302 -8.581069014827944 2.6152174216952235 -0.71074789731185
303 6.972824107706747 -1.630421435123643 -1.6641915993318686
304 -0.40649818441526764 2.976565233697777 -3.4036983806900376
305 1.4672492796920822 -3.7308894121296365 3.712433396420433
306 7.971224557195404 4.429406747066412 -0.14275194538272135
307 -2.61932120382618 -0.21241589164556457 -8.204134533046162
308 5.046143031295336 2.557908154255436 -3.5574489081062572
309 3.933530206363499 6.696796115751632 0.6824844181867862
310 3.264387959902082 -0.3992500909811756 1.9333940703100596
311 2.6292689472449617 2.1463619381054397 10.024803531316717
312 -4.984016344210193 7.262138506217899 17.96079100009639
313 -8.885003649488986 -1.7252841777169399 -4.715119973265379
314 -12.529103124791796 -5.646116000031527 -9.63911775260852
315 11.006333861898966 0.9933318649224239 -1.7152044262311128
316 -6.627937718910349 -8.865376714838302 1.2682474543720956
317 1.6855740121037712 -17.690420637277203 17.512205848219935
318 -15.566321290087973 -11.486775434651756 -16.53684441572448
319 9.584391921179014 13.928324607359974 -1.5672107962317239
320 -4.113887175519714 17.081985962243518 -4.701221186690707
321 14.952102098554342 16.05864787774953 -6.985200820970772
322 13.39964403355506 10.75164072708245 4.330374202060021
323 0.5369435639275917 -11.055316052508585 -6.42895705905893
324 -2.4754477250886757 -14.061654884858335 7.153310353235424
325 -8.717618693129124 15.940083113517936 -9.219391559397774
326 0.3588769400485714 -18.132032871352745 0.3815125730456632
327 6.541489558074033 -1.844458514805905 -18.24035706527599
328 15.590484577161071 -18.889167868546963 -10.089863409472283
329 -1.9846961460853862 -8.634359971206015 21.825802912716373
330 10.27226492650091 14.495658520204671 3.3711758521232613
331 11.665028292001418 4.4885828689885745 -13.757712229178521
332 24.34343323014596 21.40989441031145 21.75024096311764
333 -8.144452249187912 -4.41661684407853 -2.8272092240802436
334 0.5466358125303669 4.555293894851786 23.4577840579442
335 -23.09062796802186 10.426044043793024 -15.504103357909935
336 3.9581718412931943 20.59580702451191 -13.607712688514994
337 17.495503181553854 17.10198827071214 -0.09432319237641829
338 4.3282373373097505 17.411939695712796 14.398644513433934
339 -2.3594297331969347 -13.739868687405073 8.498987275100205
340 -4.290405088735847 -0.06899539806976594 4.405066323410069
341 3.047140209846476 1.3115565814405838 -1.6019837843885607
342 -14.862067275573727 20.426140815830824 -4.864351156157779
343 16.537391254793455 3.222897123840859 -9.67613375633463
344 -11.41601027356002 1.9899333838543882 -8.89823560595979
345 17.60595730560415 1.1863474248864005 6.9076638566621185
346 3.3703293071233427 0.4220753801853897 21.48571701501777
347 10.881180237428884 -7.605321619342995 15.688748434887458
348 7.605405419563413 16.052999378532885 4.361507181343832
349 -6.2798358590928585 4.416397624681238 2.114553246243336
350 17.316570078758584 25.312901762554908 7.391900371324021
351 -6.685991029825521 -22.453864694947143 0.8437467092695635
352 3.7112585708832193 -14.803135271178846 -3.874697538959741
353 4.535252183421299 -15.95739504471344 7.694827332156652
354 5.802962906010115 12.99744891783498 -14.215466130749881
355 -10.203616439403564 -11.232420442231934 -2.285251978807424
356 -6.684951646795743 11.183161779935178 -3.7868209002123683
357 5.534852784553223 -8.63359892645557 -8.10423450782799
358 5.4994356088524 13.088530201246282 3.0789422115057588
359 7.419121387430124 0.9029113855514994 8.32567957090413
360 1.3330605513330829 10.753434127433794 12.765578313829069
361 -7.0494454182980135 4.834754213532935 -1.2251217701962152
362 -1.5561676316207909 -0.4488271045322855 -19.300944510881386
363 8.879193488378652 -9.256388031571673 -5.317410302725946
364 -14.435613484907885 6.118047304347055 13.28538016383425
365 -0.860548678625273 2.200865706066261 -11.013948637919293
366 2.591388961337142 20.290386701601385 12.872959351831065
367 15.301509007967889 -9.022547029040098 17.81180247688771
368 -0.2542678599271548 -4.851710600314137 7.10781253384501
369 13.20275713486019 -6.849325976425984 16.483603728390104
370 -4.395931863502218 1.8851677123626962 12.328425968109991
371 0.7491708243138678 -15.811807635958905 -10.283379728418106
372 -18.012745763509958 8.681609773290855 -6.657945935356287
373 -28.570006936125143 -1.0404426961319988 -4.125523805486389
374 -5.442003650094365 6.519588281808083 -6.117550236954771
375 3.722090045861 3.857941111854745 -0.5712433028319662
376 5.917476528111733 -12.007020679894683 4.523099612533982
377 -3.8500417153154185 -7.722316326433227 -3.4989480398422246
378 14.404950859093713 -8.228577156343006 -1.1482469700884328
379 -29.573607249785535 4.844575421680169 16.089228032576617
380 -14.467929521100965 12.029014678946435 -4.620849678884053
381 10.34004929188211 -8.492141290413892 6.814303929807689
382 8.620848150377212 4.539419174184826 -22.33070742013492
383 -12.803266967763486 22.36453207987636 8.653515510983786
384 -3.469753097010511 15.16967852104333 -2.607299182520296
385 -13.075215960352448 -0.9243885539270533 12.403527964866752
386 8.297349574832664 2.8572880903369806 -2.695195899473034
387 -3.89593894455815 -1.3753114800676158 8.955705062310088
388 -3.348566246887504 7.580606583224517 -0.9597935527214769
389 0.997021583058656 -17.791940380005844 15.158231780547005
390 -5.952385819085615 5.7223787203422445 14.50347117967707
391 -2.286691194647784 -22.368544097869453 28.14112599564436
392 -3.9327234235037687 -8.887004398004114 -4.136612854370559
393 16.56922861986119 -16.787551136927767 1.063936572978356
394 -1.3449589396121262 6.212188725054215 12.37265658158007
395 -8.16567668230107 4.485534518762871 -15.356820004252269
396 10.624583251005388 21.91739703498944 14.38747596683766
397 1.7574197661298794 -24.30227824146994 -7.968147811005749
398 22.263016717700136 7.288769276103451 6.662631318202057
399 9.222587493946762 -9.411625108590885 5.323327957567683
400 3.1978210884175162 15.237936724995691 21.62548731638543
401 -0.12400090306947398 -10.19055629270084 8.810930862842696
402 1.8484095580759476 17.282048821052364 7.665609729677063
403 11.08459578124791 -2.690630633752815 16.364076890599296
404 -7.7280622621854285 14.619991759250286 -15.641945268678715
405 -15.692726748461045 -2.9033400414673816 7.946052681871237
406 2.8490072621182168 -29.701904004868787 1.8538954469845885
407 9.353250490701392 -25.18846878653282 -0.12650207670552538
408 19.183396126968592 -8.300207567171865 33.28665433972951
409 14.769319295231972 0.07717055030531203 2.1657321070300877
410 0.3667684379337169 -9.518959202384206 3.1522843391810387
411 -13.155050518881538 -2.2534067216063765 -2.328536434053748
412 -1.901094866904132 -11.81660213096033 7.590555208185727
413 1.7382420578052753 0.6857139471599069 8.08394971001887
414 9.289404733648587 0.03308352643326305 -0.32782835536555627
415 -2.718117261163094 -12.800085155682606 3.145411590901176
416 -10.643490778369884 5.1534812844873485 1.391211021541972
417 -2.1886662816257245 -9.55868583233469 3.875707560778971
418 24.78988464265619 -2.218973688470339 -22.608212089827617
419 -29.367640529583213 -5.295352584359186 0.2879757839065809
420 -4.875533685941201 5.901360598716513 -14.578361912881508
421 7.110128846791242 -11.021059031094746 7.124868432855353
422 -2.0507632791449395 13.60117810869377 -7.903098781228915
423 -21.07196984611784 7.99133640344977 -4.04665601390897
424 -4.437817581930565 6.074234730638907 -0.19417598821363646
425 17.826491316932227 1.75940663583253 -43.70926665840688
426 4.69036442217409 9.896741331211999 -8.196930724869564
427 19.892725163634406 -6.516570579712351 3.2553368659906887
428 -3.597071156760425 18.135704938144915 12.496856173882973
429 -28.862811984395595 32.71088867078819 -2.1780954019177683
430 4.770384342493309 7.825938993033954 4.733304326772758
431 6.5379693044872 6.043565757591384 -22.827686811718777
432 -18.5894037537858 10.615995412016067 6.226243472258127
433 -6.724477467845472 -3.8092378822554753 0.18128606387336704
434 1.7057516397668033 -1.5402161334844537 0.22793626751032064
435 -0.9780658111513421 -6.7423029620648975 0.6779071950069574
436 -2.084495544407568 -1.2223842878899467 0.2850240042194099
437 2.587251997872958 -8.817052142290882 -0.30175113420529365
438 -0.6141663517175542 -2.217236441565668 -3.1647325054600746
439 0.3816438705060435 2.4353259208307274 -8.057789101924545
440 -0.6148910652660303 1.3496962786553488 -0.09235424634666553
441 3.2965535503584986 6.73013454636491 6.31268973189589
442 -1.229572780125718 0.9686996619676532 0.9012468319730267
443 0.05885183585938693 2.2877436260582646 0.36571754617667623
444 -2.04412030612244 1.1013537805224336 -0.16087668395342053
445 -0.7127404441017943 -1.7018049402867748 -4.713277744420531
446 4.249135755227007 -5.622783519319422 -2.124264065204351
447 0.6916548808112095 -1.2525578231946342 -0.7732525147560977
448 3.7457341498313137 0.3659753236832195 -6.221237883897768
449 1.26390201141061 -4.159969104815842 -3.7050557147945686
450 -2.027672376991472 -2.2297069276582784 8.058199895729695
451 0.8030117109141146 -9.892386072479665 9.223215711359385
452 1.1202029110090186 1.7888223125458271 -5.067415827489906
453 -1.461449322816285 -8.478435497898257 -5.768953309611843
454 0.9720448466608735 -4.045706439343103 -1.5377226374418858
455 1.4942078731634865 -6.512077157346936 1.805329790311785
456 2.421712394696407 0.5988449198675306 -2.017505700359024
457 -2.742435908970805 -4.7429517008453175 1.1693413187647983
458 -2.62895646710876 -1.3529470724165529 -0.08101054856590284
459 -3.7615976012844756 -5.128191680290833 3.484580188755338
460 4.135374435353664 -0.7640797837660153 2.1989206828970698
461 -0.35064023474647077 4.737940578943737 -4.31764738785548
462 1.6584127033140845 -1.0528093475586044 1.8771867646063038
463 -5.603870220136014 -2.66179223122158 -0.3855740315455509
464 1.6013999791245148 -4.367903815224754 -2.0739828169801755
465 1.2839434932117504 0.32060096728339943 1.2974412254020258
466 -5.772609710491176 7.041090447155034 -3.171735589751627
467 -0.6475635680864613 3.839927292851028 6.21415750096519
468 3.509624451014696 7.7896085630799465 -1.8017806283558722
469 8.913400608148816 2.2162264921911103 -0.9645478546585653
470 -2.284389550863861 1.1396942673294173 -1.780262125311042
471 1.4992751014985564 -2.074731199623127 -3.4855582986691336
472 -3.178863153974342 -1.845350693687459 -2.006316905834401
473 -4.2363955260785735 1.8027520441844067 3.7275051036861555
474 1.7013230105605945 2.8055548667133614 -4.632999395543324
475 -0.8234136572009801 -3.3489887997871746 5.328811163177607
476 -2.1317753420485337 3.071627969457447 -1.6385603833183275
477 -2.780843025594821 -1.8777003961062628 -2.4456852387994186
478 -0.7589759473363841 -0.6986270872832031 1.9345820229335782
479 1.5757147999490604 -3.634297360482021 5.95452129902018
480 1.8235668047661766 -2.181051169833844 6.29424805748797
481 -1.3527207804791919 1.8164930480300565 4.7694326299764125
482 -1.3507588463513875 2.1236444841183584 0.44391573064658923
483 3.824043946789121 1.853640068295232 -2.8103816297983193
484 7.731267962603277 0.6020065712212168 5.95143062403178
485 -1.4865630223884878 -1.7148707276466375 -2.2081657449519434
486 -1.6299703063930633 0.5654934558833659 1.6842523756547616
487 4.756190488266133 -8.511810683446027 -2.634972274317661
488 -8.581069014827944 2.6152174216952235 -0.71074789731185
489 6.972824107706747 -1.630421435123643 -1.6641915993318686
490 -0.40649818441526764 2.976565233697777 -3.4036983806900376
491 1.4672492796920822 -3.7308894121296365 3.712433396420433
492 7.971224557195404 4.429406747066412 -0.14275194538272135
493 -2.61932120382618 -0.21241589164556457 -8.204134533046162
494 5.046143031295336 2.557908154255436 -3.5574489081062572
495 3.933530206363499 6.696796115751632 0.6824844181867862
496 3.264387959902082 -0.3992500909811756 1.9333940703100596
745 -5.495413609756407 -4.465844360753459 -4.568487588204872
746 4.095889074630565 1.865404766294721 1.531101768949413
747 5.177410428923836 0.17663631741805677 4.999346953696887
748 11.924674134721245 -0.28483464907972694 4.988164073053915
749 -1.9395113823169345 -0.8903576669047183 4.063143160478305
750 4.030109569778162 -1.5726536043425987 -4.402399848091987
751 -3.680255378272366 -3.9798431931173393 1.1071703137058644
752 5.4755299638110495 2.5570578314615764 1.0415294340461823
753 -10.092714293466912 -6.874254296393893 -5.236300312001265
754 4.096156862133978 7.644571923802019 4.953614543848512
755 -0.16950171710146736 2.4599283508676337 -3.1488197406340337
756 -0.6874718341665903 -0.19870410823335077 -1.6457571009637135
757 1.1817708925364174 -0.5109821492387374 -1.595858423540195
758 -3.8154060317131853 0.9970523918666269 2.087936378621413
759 -6.76451729872327 3.3669745248994944 1.5374827648088172
760 3.0425097408871706 0.9777033798955644 -0.5192018800960412
761 11.54225669915429 0.49857729477461227 -3.6017011953588804
762 -0.3911119910760972 6.991102667487576 3.6888666268661114
763 1.8349178718824688 3.181146799167193 0.20420895244540813
764 -3.7941983941328026 -2.806867047160989 2.0780523857688746
765 -2.981303608980925 3.6418033685240894 -0.9323856784444466
766 -4.28448849527978 -1.6206714916855562 -2.3292032006368335
767 3.9387164709435796 0.982806356020148 -7.345638109077359
768 -1.181802962397 -1.2077420324001966 -0.8644011431058065
769 0.46266498373530984 -3.084377337845805 0.7172856039352368
770 8.265213764883876 -2.9275832369761554 7.516655287294678
771 0.08820398681964498 -0.42131125867286284 -2.8100268365785834
772 -9.48776066702863 0.06323541759573285 -1.3764847441448689
773 -2.6199647525050778 -1.0104501612121088 -5.921429306405654
774 -6.253438094196789 -0.8339249831490466 -2.1319999200941453
775 2.993537203197191 -3.7712298487637668 3.455491841796845
776 -1.069396044578781 6.504944629612299 0.3688434156373002
777 -1.7678036907283978 0.16421634808731844 2.9791091199556803
778 -1.8654735273030867 2.0165085741696225 2.2504427937856315
779 -2.7295248724060173 5.102973974980298 2.9624602446287334
780 0.5338845706538121 7.072179337204597 2.747270967448226
781 7.736231519760099 -1.0420056650350984 0.7076075224208994
782 2.204855075904209 2.2814476402478654 -1.317059716722765
783 4.846469580453811 -1.5183698312841716 0.697847915808674
784 -4.710168992447858 -5.103638187809949 -1.359161827028611
785 -4.563323180716324 -9.910141208605085 -5.240044541373204
786 2.6994749103335174 3.83931778985404 -4.241168171440623
787 -1.441865236957768 0.21049539284467667 0.7002140784741661
788 1.9639531274344073 2.9910711655750233 4.736401525639883
789 -7.687036830968547 -0.10659359431957371 -3.1491074375980834
790 -2.4153333538613424 1.272452700373299 1.0635009599379956
791 5.816851793942354 -3.984001550918024 -1.9473149630900686
792 7.147243923598729 3.813247880035479 4.045602126472215
793 -3.4177612386781684 -0.5964280144786364 6.8351032893614825
794 -2.426579009535117 -5.9836601283667195 -3.23934742583508
795 3.7206848946213986 5.003249500405362 -1.9045408474715027
796 0.5424163416266858 4.369914703081246 -0.9987703314468643
797 5.722971753115436 -0.2943421911598807 -5.744720968742167
798 -0.9861171496612504 4.20988374752354 -2.625767145979611
799 6.037404103981378 -0.105248033273491 7.406106842247858
800 -11.384294267108489 -5.15674481175839 0.9684114331644322
801 3.148374857852254 0.0906288772208786 -4.382113020924517
802 -1.2108468509170276 2.0424039652089223 3.298989577847777
803 2.1822694846993462 9.331459210966177 -8.32733928875658
804 -2.1175923862265496 0.9127824324042794 -2.8555360149503732
805 3.5926516473503676 -1.0418824373444369 -0.8798191834372339
806 6.462121087569198 -1.4218109472231608 -0.1272781213442358
807 -9.279693239723782 -7.010748664517614 18.84622576594242
808 3.5227324052221407 14.685082386935601 3.9693125161030762
809 15.269086792148684 3.2551192218753098 -6.094458689477058
810 -2.4247048151108603 -9.421956801100576 -15.941404083602624
811 -5.195399343900778 12.459791494473206 -12.575222929195663
812 -8.000591476714494 -5.1611087877336175 -0.18140768145886918
813 -10.825495286104903 8.409082159233499 0.6345838796284644
814 -10.208775686576745 -17.643220847636044 -12.724128475729946
815 -3.316148684423275 0.9067136213207236 4.250383388730846
816 1.304820505064548 -7.113364311548932 24.653319250458235
817 -20.182389516867726 6.871148791708325 6.775344440788385
818 16.005976411794308 10.748046187265752 0.13664977204977502
819 3.0875355682802743 9.885123216133763 -12.602906419351276
820 -2.5661351878278214 8.059531450146908 14.387023037889815
821 2.9654352774157577 6.86212262829408 1.3126947988318056
822 -3.4037045996529494 13.539724289650417 -4.1413857869221395
823 12.895319832469031 -5.119730002980459 0.5356318687708084
824 8.848523233647342 5.760059177543054 10.766234703823834
825 11.125410020002041 -23.456241040474765 12.633938751048706
826 -0.4918235894723205 0.33522548432822447 -6.643786097244596
827 -8.754017558959903 11.745713945412774 -3.086453144131321
828 -30.477784311098553 -1.4587351533425348 0.10543315119609611
829 -0.31036964095520553 0.306604549317148 7.375601508778061
830 -5.983832206258111 -15.531506934468329 -11.459976792413446
831 5.080283163072054 1.713155628938274 -3.6971079035668466
832 -5.73970428149472 -4.803281907739378 6.145645937434604
833 3.621466619284296 -8.870390465163233 -12.288282921177283
834 -6.890603982585048 6.94509773939054 -11.412937583585684
835 -3.331407934181401 -3.4834500881617316 10.72670274861526
836 10.773314823994408 7.935751479433879 -13.05554191756525
837 4.74456734944517 -9.22746944043813 -5.907568400244582
838 -6.971122215211771 10.959857866179743 15.365202282707314
839 16.159382847049557 20.380924722254434 4.832202633119412
840 -4.5167343265914495 -7.666239751395977 1.5655866195850703
841 -17.405047979417272 -1.5467553791871094 4.465064335674019
842 11.393109916446829 12.03995948500382 10.000928779222994
843 16.66437547481635 -12.070284462066304 3.265720298979989
844 0.47075364474131887 11.078075552884851 -8.002940432493824
845 2.112852640684105 5.3940218736882155 -14.38184971279576
846 -1.318945572241978 -12.011339156634827 6.0854763306418835
847 5.321765139078914 -9.654639966680218 14.422216520225621
848 -4.257846203752083 -2.415907182874539 -0.6420428811334852
849 -8.532601695965578 -0.19144052344875978 1.7200832610622532
850 0.781731509951963 -1.9836319932854658 -3.021009036649789
851 -5.826811524894728 8.471738502930293 -1.1898304985480985
852 -13.694537311255152 10.756775445738906 3.9700659222275605
853 12.391293649229967 3.099290704730051 14.693328457596161
854 3.4602054385437633 3.463301265774186 -15.89450600868479
855 -11.960676361933016 -5.990958893501066 -6.869313569435965
856 -9.722080061156316 -0.24754394285363504 4.628887274387393
857 9.832947517391574 6.630700448123297 -8.267720207518325
858 3.104431348129687 1.1474783739104106 -7.726818552646884
859 -17.030070525712286 8.300499484157957 -6.5191233250047445
860 4.98373386670855 21.53369481887886 29.5039875221293
861 -0.6489614679015803 -4.914526541207042 35.59479641363165
862 4.37638957569023 -8.260945641305415 -10.598653707895165
863 8.071199048118162 -7.5696745065281315 18.932712442710717
864 9.470128883334983 9.693403967673818 15.118042912476664
865 9.021797431835218 14.365813910785452 24.177546701572687
866 -12.032425559173499 -8.218496479201544 -3.495796526315527
867 -28.472646396948864 -1.5802730718621496 18.56252639837906
868 4.009872513870667 -3.70262056882578 -29.51622346813031
869 -2.9837270982177913 0.3185515791317973 8.202100861615115
870 -12.807543586534448 -1.0201393960085878 10.104547317314504
871 1.8123142855444865 -0.7742913612835027 -0.12333830937641765
872 -0.20687714773358623 4.981385018492955 -8.575440993938464
873 -0.5457367929825859 -9.131702726935304 21.700595494917252
874 3.273019497977257 0.3266596951655705 -7.757973840740661
875 -22.7705711307155 18.364232997690337 9.028093727439726
876 -5.259435315686608 -7.461152282399102 -0.6201903058955864
877 11.942690504506396 3.587543311892285 -2.855387161354974
878 -3.9978598560751966 6.0698837680787205 7.806144414733057
879 7.648483912725915 -2.46205105797266 16.201044080523697
880 4.81293609688443 -11.569545857624881 -14.776511117977833
881 9.977685979735229 -5.513648892962525 -8.058728587666378
882 4.892609834538755 -5.701620779998927 -12.140994915206708
883 -18.33882141245302 -2.057756124030467 -6.424115902543626
884 -1.0154847563693734 18.407450038140134 -15.989596512820393
885 6.4022989711978635 0.7330396029292504 -1.1742921776851123
886 11.771158667397327 -9.74799696667019 -20.458843723222586
887 8.986819703464656 -6.15723008949651 -5.057321988343268
888 5.712179563788352 12.074981484963423 8.53749027607974
889 2.5933828469526894 0.6459412251937575 -1.018882079491068
890 -2.6536413596502975 4.053764049300561 -4.628780982315446
891 -8.344585851755257 7.558655679622763 -5.689575216832948
892 -4.962713036571412 -10.786322565291265 1.330887252151686
893 15.192300263269328 -8.030963006317236 -8.383613520290835
894 1.933464971212629 -0.7094887166568882 17.297214236555345
895 20.602733868400076 -14.27751942835334 15.257778971056375
896 11.679600769145182 -6.874848833923173 14.992575454822203
897 -6.546438707543805 -6.3485544802400415 -7.213219880551524
898 -10.527270860124473 1.6176368996326271 14.046501051304874
899 7.793378105316157 7.138530369691824 -4.618307992572482
900 -21.07415840291323 -6.509997031085166 5.491912134885529
901 5.068724222919108 -3.768276547917804 -0.6066087873311837
902 -22.353914183314348 -0.6717201970293096 12.619784575550025
903 -2.9390468877410383 10.72677300117098 3.4224160499291285
904 20.316870443813627 4.878812328991499 3.5077062052265804
905 3.6316353181634478 13.244618595416808 1.085438318949845
906 -4.364156306583342 -3.947099796727084 -21.10447577945847
907 -7.198017490045896 5.018067407498206 3.9118879243993643
908 -3.2047262388354207 -3.6311596045006356 -16.034407165464657
909 -10.972431158145332 7.564293522471318 6.69025241698485
910 5.569997179280111 -0.5441452548598874 10.32613982869613
911 10.028328025430028 19.31480653511092 -23.188743713096805
912 11.14681717538095 0.11974205374649004 6.8307830779106045
913 -17.599135347596775 -18.18926331216105 -7.800771783566855
914 19.319836402673285 -11.839594462523301 -12.496660155900415
915 15.626417826839258 -0.6209442300490398 0.9577439971774271
916 -18.041735836948906 1.6288407674629106 -18.19865026714782
917 7.144924641197414 -4.879940875166049 8.741777779231889
918 1.3603096106522736 3.4082257604558537 7.907707481481172
919 7.838965610918317 8.055363386788246 -5.250117064289538
920 -10.49429943877487 11.646025957414038 4.226969115592158
921 -11.61411581406549 -20.015550586108596 -0.25698189272692856
922 -8.442394988988188 -9.950072170820105 -2.5415056457542113
923 0.5608365625955722 -2.662181621806333 26.657301563944714
924 -18.519829613455848 -2.5527939295829416 4.414058901980561
925 -3.6742563427764057 -38.1982124937301 4.010370110288994
926 11.21294979984715 -1.1458115466932346 -9.812822276255488
927 0.25801853596508356 18.81686200949998 -8.509633962828893
928 -5.63817761431474 12.66663312460259 13.007320639446776
929 4.422970924328467 6.661746109592389 0.6344405988078857
930 -7.048007017277915 6.2207787419056375 7.280775773258217
931 -5.495413609756407 -4.465844360753459 -4.568487588204872
932 4.095889074630565 1.865404766294721 1.531101768949413
933 5.177410428923836 0.17663631741805677 4.999346953696887
934 11.924674134721245 -0.28483464907972694 4.988164073053915
935 -1.9395113823169345 -0.8903576669047183 4.063143160478305
936 4.030109569778162 -1.5726536043425987 -4.402399848091987
937 -3.680255378272366 -3.9798431931173393 1.1071703137058644
938 5.4755299638110495 2.5570578314615764 1.0415294340461823
939 -10.092714293466912 -6.874254296393893 -5.236300312001265
940 4.096156862133978 7.644571923802019 4.953614543848512
941 -0.16950171710146736 2.4599283508676337 -3.1488197406340337
942 -0.6874718341665903 -0.19870410823335077 -1.6457571009637135
943 1.1817708925364174 -0.5109821492387374 -1.595858423540195
944 -3.8154060317131853 0.9970523918666269 2.087936378621413
945 -6.76451729872327 3.3669745248994944 1.5374827648088172
946 3.0425097408871706 0.9777033798955644 -0.5192018800960412
947 11.54225669915429 0.49857729477461227 -3.6017011953588804
948 -0.3911119910760972 6.991102667487576 3.6888666268661114
949 1.8349178718824688 3.181146799167193 0.20420895244540813
950 -3.7941983941328026 -2.806867047160989 2.0780523857688746
951 -2.981303608980925 3.6418033685240894 -0.9323856784444466
952 -4.28448849527978 -1.6206714916855562 -2.3292032006368335
953 3.9387164709435796 0.982806356020148 -7.345638109077359
954 -1.181802962397 -1.2077420324001966 -0.8644011431058065
955 0.46266498373530984 -3.084377337845805 0.7172856039352368
956 8.265213764883876 -2.9275832369761554 7.516655287294678
957 0.08820398681964498 -0.42131125867286284 -2.8100268365785834
958 -9.48776066702863 0.06323541759573285 -1.3764847441448689
959 -2.6199647525050778 -1.0104501612121088 -5.921429306405654
960 -6.253438094196789 -0.8339249831490466 -2.1319999200941453
961 2.993537203197191 -3.7712298487637668 3.455491841796845
962 -1.069396044578781 6.504944629612299 0.3688434156373002
963 -1.7678036907283978 0.16421634808731844 2.9791091199556803
964 -1.8654735273030867 2.0165085741696225 2.2504427937856315
965 -2.7295248724060173 5.102973974980298 2.9624602446287334
966 0.5338845706538121 7.072179337204597 2.747270967448226
967 7.736231519760099 -1.0420056650350984 0.7076075224208994
968 2.204855075904209 2.2814476402478654 -1.317059716722765
969 4.846469580453811 -1.5183698312841716 0.697847915808674
970 -4.710168992447858 -5.103638187809949 -1.359161827028611
971 -4.563323180716324 -9.910141208605085 -5.240044541373204
972 2.6994749103335174 3.83931778985404 -4.241168171440623
973 -1.441865236957768 0.21049539284467667 0.7002140784741661
974 1.9639531274344073 2.9910711655750233 4.736401525639883
975 -7.687036830968547 -0.10659359431957371 -3.1491074375980834
976 -2.4153333538613424 1.272452700373299 1.0635009599379956
977 5.816851793942354 -3.984001550918024 -1.9473149630900686
978 7.147243923598729 3.813247880035479 4.045602126472215
979 -3.4177612386781684 -0.5964280144786364 6.8351032893614825
980 -2.426579009535117 -5.9836601283667195 -3.23934742583508
981 3.7206848946213986 5.003249500405362 -1.9045408474715027
982 0.5424163416266858 4.369914703081246 -0.9987703314468643
983 5.722971753115436 -0.2943421911598807 -5.744720968742167
984 -0.9861171496612504 4.20988374752354 -2.625767145979611
985 6.037404103981378 -0.105248033273491 7.406106842247858
986 -11.384294267108489 -5.15674481175839 0.9684114331644322
987 3.148374857852254 0.0906288772208786 -4.382113020924517
988 -1.2108468509170276 2.0424039652089223 3.298989577847777
989 2.1822694846993462 9.331459210966177 -8.32733928875658
990 -2.1175923862265496 0.9127824324042794 -2.8555360149503732
991 3.5926516473503676 -1.0418824373444369 -0.8798191834372339
992 6.462121087569198 -1.4218109472231608 -0.1272781213442358

Bonds

1 1 1 187
2 1 2 188
3 1 3 189
4 1 4 190
5 1 5 191
6 1 6 192
7 1 7 193
8 1 8 194
9 1 9 195
10 1 10 196
11 1 11 197
12 1 12 198
13 1 13 199
14 1 14 200
15 1 15 201
16 1 16 202
17 1 17 203
18 1 18 204
19 1 19 205
20 1 20 206
21 1 21 207
22 1 22 208
23 1 23 209
24 1 24 210
25 1 25 211
26 1 26 212
27 1 27 213
28 1 28 214
29 1 29 215
30 1 30 216
31 1 31 217
32 1 32 218
33 1 33 219
34 1 34 220
35 1 35 221
36 1 36 222
37 1 37 223
38 1 38 224
39 1 39 225
40 1 40 226
41 1 41 227
42 1 42 228
43 1 43 229
44 1 44 230
45 1 45 231
46 1 46 232
47 1 47 233
48 1 48 234
49 1 49 235
50 1 50 236
51 1 51 237
52 1 52 238
53 1 53 239
54 1 54 240
55 1 55 241
56 1 56 242
57 1 57 243
58 1 58 244
59 1 59 245
60 1 60 246
61 1 61 247
62 1 62 248
63 1 497 683
64 1 498 684
65 1 499 685
66 1 500 686
67 1 501 687
68 1 502 688
69 1 503 689
70 1 504 690
71 1 505 691
72 1 506 692
73 1 507 693
74 1 508 694
75 1 509 695
76 1 510 696
77 1 511 697
78 1 512 698
79 1 513 699
80 1 514 700
81 1 515 701
82 1 516 702
83 1 517 703
84 1 518 704
85 1 519 705
86 1 520 706
87 1 521 707
88 1 522 708
89 1 523 709
90 1 524 710
91 1 525 711
92 1 526 712
93 1 527 713
94 1 528 714
95 1 529 715
96 1 530 716
97 1 531 717
98 1 532 718
99 1 533 719
100 1 534 720
101 1 535 721
102 1 536 722
103 1 537 723
104 1 538 724
105 1 539 725
106 1 540 726
107 1 541 727
108 1 542 728
109 1 543 729
110 1 544 730
111 1 545 731
112 1 546 732
113 1 547 733
114 1 548 734
115 1 549 735
116 1 550 736
117 1 551 737
118 1 552 738
119 1 553 739
120 1 554 740
121 1 555 741
122 1 556 742
123 1 557 743
124 1 558 744
125 1 249 435
126 1 250 436
127 1 251 437
128 1 252 438
129 1 253 439
130 1 254 440
131 1 255 441
132 1 256 442
133 1 257 443
134 1 258 444
135 1 259 445
136 1 260 446
137 1 261 447
138 1 262 448
139 1 263 449
140 1 264 450
141 1 265 451
142 1 266 452
143 1 267 453
144 1 268 454
145 1 269 455
146 1 270 456
147 1 271 457
148 1 272 458
149 1 273 459
150 1 274 460
151 1 275 461
152 1 276 462
153 1 277 463
154 1 278 464
155 1 279 465
156 1 280 466
157 1 281 467
158 1 282 468
159 1 283 469
160 1 284 470
161 1 285 471
162 1 286 472
163 1 287 473
164 1 288 474
165 1 289 475
166 1 290 476
167 1 291 477
168 1 292 478
169 1 293 479
170 1 294 480
171 1 295 481
172 1 296 482
173 1 297 483
174 1 298 484
175 1 299 485
176 1 300 486
177 1 301 487
178 1 302 488
179 1 303 489
180 1 304 490
181 1 305 491
182 1 306 492
183 1 307 493
184 1 308 494
185 1 309 495
186 1 310 496
187 1 745 931
188 1 746 932
189 1 747 933
190 1 748 934
191 1 749 935
192 1 750 936
193 1 751 937
194 1 752 938
195 1 753 939
196 1 754 940
197 1 755 941
198 1 756 942
199 1 757 943
200 1 758 944
201 1 759 945
202 1 760 946
203 1 761 947
204 1 762 948
205 1 763 949
206 1 764 950
207 1 765 951
208 1 766 952
209 1 767 953
210 1 768 954
211 1 769 955
212 1 770 956
213 1 771 957
214 1 772 958
215 1 773 959
216 1 774 960
217 1 775 961
218 1 776 962
219 1 777 963
220 1 778 964
221 1 779 965
222 1 780 966
223 1 781 967
224 1 782 968
225 1 783 969
226 1 784 970
227 1 785 971
228 1 786 972
229 1 787 973
230 1 788 974
231 1 789 975
232 1 790 976
233 1 791 977
234 1 792 978
235 1 793 979
236 1 794 980
237 1 795 981
238 1 796 982
239 1 797 983
240 1 798 984
241 1 799 985
242 1 800 986
243 1 801 987
244 1 802 988
245 1 803 989
246 1 804 990
247 1 805 991
248 1 806 992
