# LAMMPS data 
192 atoms
2 atom types
0.0 12.44466114 xlo xhi
0.0 12.44466114 ylo yhi
0.0 12.44466114 zlo zhi
0.0 0.0 0.0 xy xz yz

Atoms # metal

1	1	8.290458679	1.73238349	4.688838482
2	1	7.772963047	5.938083649	10.4234705
3	1	9.621801376	1.240569115	10.04313183
4	1	14.3095274	10.65300369	3.104269028
5	1	4.525592804	9.0542202	3.771060944
6	1	-0.807656527	15.51412296	9.768979073
7	1	6.752959728	3.42136693	6.376431465
8	1	-1.530937314	14.11480522	5.37898016
9	1	14.93422413	5.742588997	6.46999979
10	1	9.058322906	9.298542023	5.739274502
11	1	1.684865952	9.564095497	9.379477501
12	1	3.1079638	2.067743778	9.739238739
13	1	7.153162003	-0.704927266	3.403919935
14	1	12.39187813	8.323281288	3.567241907
15	1	1.946020007	-3.700834751	-0.462607324
16	1	1.314585924	5.714006901	0.147151589
17	1	6.116422653	11.3289938	0.983406723
18	1	2.794572353	11.61557961	6.950415611
19	1	8.100511551	0.055180006	12.07640743
20	1	-2.32806325	3.64973259	1.218513131
21	1	1.232231855	13.41184235	3.983050108
22	1	10.33002949	8.379088402	1.69923079
23	1	2.767135143	-0.461238861	10.81002522
24	1	4.663220882	8.925130844	12.50294685
25	1	5.281778336	11.39309311	10.4825201
26	1	4.857526302	12.1157465	5.325895786
27	1	4.077881813	6.37277174	3.167723179
28	1	11.04559708	7.419342041	6.127463341
29	1	5.745442867	6.284636497	7.500342369
30	1	-1.473188281	9.451199532	-2.782251596
31	1	1.400468111	6.086926937	2.834053755
32	1	10.72667408	11.47534752	5.889882088
33	1	9.156071663	5.189756393	6.552549839
34	1	10.2573328	10.52602386	-0.149643704
35	1	1.743485451	6.648393154	8.964777946
36	1	-1.812246084	13.62096786	2.450707674
37	1	5.666523457	1.82564342	10.3134203
38	1	4.295189857	4.266104698	-7.343056202
39	1	4.005645752	9.171522141	7.777045727
40	1	-2.497713566	7.045332432	-3.276535034
41	1	5.865759373	3.161175489	12.63665104
42	1	12.9984293	-2.33747077	6.47402668
43	1	9.680654526	-0.672928512	8.390522003
44	1	7.91931057	-3.327831984	15.73576927
45	1	8.132405281	5.84265852	0.92144084
46	1	0.147843003	3.462611675	6.611516476
47	1	7.920804501	2.03775239	13.88765907
48	1	14.89702034	8.249174118	5.923437595
49	1	-0.659203529	5.246479988	-4.184380531
50	1	-0.289307773	11.49789238	1.345030785
51	1	12.9677	3.542764902	16.11693382
52	1	1.62638092	0.874922693	12.89092827
53	1	-0.579163373	7.298033237	-0.4242118
54	1	7.075282574	11.07659149	7.430857658
55	1	10.40049076	16.94122314	16.60363197
56	1	-4.597275257	2.96684885	8.887769699
57	1	5.230273247	5.828591347	13.29195404
58	1	7.739657402	8.239062309	7.927205086
59	1	15.93936157	5.076775551	10.92689514
60	1	3.574497461	1.954168558	3.864842653
61	1	12.46771049	3.507043362	0.205143094
62	1	5.728920937	8.682146072	9.945833206
63	1	4.28783226	1.451228857	1.265752196
64	1	0.973865211	1.214461088	7.950808525
65	2	9.10342598	1.555441141	5.180447102
66	2	8.613664627	6.355163097	10.0768404
67	2	8.994726181	1.806833982	9.572909355
68	2	14.13352489	11.61430931	3.231320381
69	2	5.520604134	9.106765747	3.729993343
70	2	12.00032711	15.75389957	10.64591217
71	2	7.345869541	4.190385818	6.483409405
72	2	-1.021628618	14.79076576	5.897440434
73	2	14.6378746	5.818573952	7.431965351
74	2	8.358756065	8.841921806	6.281292439
75	2	2.457554102	9.804767609	8.704508781
76	2	15.28082275	1.162961721	9.96768856
77	2	6.950251579	-0.880346179	2.450776815
78	2	12.11543751	8.050575256	4.467509747
79	2	1.798070908	9.122919083	-1.357825637
80	2	2.181546926	5.514210701	-0.3945297
81	2	5.552031994	10.72654819	0.521256506
82	2	14.36058807	11.20925617	6.768699169
83	2	8.929049492	-0.530197024	12.21615124
84	2	-1.870057106	2.910806894	1.699135423
85	2	1.121396661	13.09961891	4.92010498
86	2	10.87551689	8.645222664	2.419509411
87	2	2.40426445	-1.252243996	10.54289055
88	2	4.972071648	8.040893555	12.66960239
89	2	5.504171371	10.50437069	-2.347482204
90	2	4.640380383	12.95424175	4.842564583
91	2	4.12282753	5.721243382	3.879534721
92	2	10.54348278	6.662238121	6.358112335
93	2	5.020286083	6.389137268	6.851551056
94	2	-1.501757383	9.735091209	-1.808362842
95	2	0.895673275	6.877994537	3.105971813
96	2	9.976955414	10.90047646	5.633569241
97	2	9.472745895	5.119923115	5.695211887
98	2	11.01616383	10.88265514	12.91663265
99	2	2.349505901	6.484162331	9.684765816
100	2	11.35886765	12.9955864	2.478976965
101	2	5.766525269	2.037541151	11.27046394
102	2	5.031235695	4.209611893	-6.652616024
103	2	4.656633377	8.801258087	8.412207603
104	2	-1.716465235	6.472603798	-3.62556386
105	2	5.683459759	4.071046352	13.0430069
106	2	12.11922836	-2.165771008	6.118787766
107	2	9.858421326	0.126569197	9.041824341
108	2	7.919386864	-2.354941607	15.74267578
109	2	8.182141304	5.956609726	-0.037712973
110	2	-0.061622377	4.231374264	7.245994091
111	2	8.144351959	1.938868284	14.81985092
112	2	15.38251495	8.754535675	5.205387592
113	2	-0.948499322	4.592356682	-3.492217064
114	2	0.250289947	10.9596777	2.006443501
115	2	13.42168331	4.089440823	15.48880672
116	2	2.10035491	0.409804344	-0.26898542
117	2	-1.296036839	7.123916149	-1.105954289
118	2	6.419950008	11.38063049	6.783765793
119	2	11.36303139	16.80825806	16.61120224
120	2	-5.099295139	3.054180145	8.054690361
121	2	18.59818459	6.02926302	13.4447279
122	2	7.044580936	7.583632946	7.795273781
123	2	16.82663536	5.319583416	11.18103027
124	2	3.922693729	1.888015151	2.883605719
125	2	11.46280003	3.601286411	0.498709321
126	2	5.534140587	8.601718903	10.92256832
127	2	4.865702152	2.158293486	0.834421873
128	2	12.66177464	1.024049997	8.454035759
129	2	8.038169861	0.876806498	4.265019417
130	2	7.856980801	5.087089539	10.01485062
131	2	9.022894859	13.24188805	10.65638733
132	2	15.14443207	10.57158756	2.637474537
133	2	4.308942318	8.182016373	3.425503492
134	2	10.79028225	14.9612484	9.867537498
135	2	7.284315109	2.802024603	5.785890579
136	2	-1.289819241	13.20992088	5.653711796
137	2	14.91113091	6.613983631	6.095749855
138	2	8.757210732	9.328925133	4.799604893
139	2	0.890322268	9.788238525	8.865742683
140	2	2.532489061	14.7271719	9.00531292
141	2	6.364913464	-0.849871576	3.993717909
142	2	12.97020054	9.102420807	3.717059135
143	2	1.052989244	-4.067129612	-0.366469592
144	2	0.872178853	4.874121666	0.219964251
145	2	6.598938465	11.64504433	0.224885613
146	2	2.574982643	12.37700844	7.562530041
147	2	8.316725731	0.720165312	12.79814625
148	2	-2.530098438	4.323817253	1.913862467
149	2	2.110357523	13.81645679	3.946387053
150	2	10.95707989	7.954824448	1.100411296
151	2	3.727274895	-0.731706202	10.73830795
152	2	3.668056011	8.742264748	12.41554356
153	2	6.035479069	12.01430893	10.29168987
154	2	4.077635288	11.92177677	5.90614748
155	2	3.095282555	6.270764828	2.919994354
156	2	10.48499966	8.178230286	6.378058434
157	2	5.863842964	5.350577354	7.60712719
158	2	-1.95964396	10.16003799	9.236777306
159	2	1.378245354	6.030143738	1.855782866
160	2	10.43511009	11.64378071	6.816076756
161	2	9.753882408	4.549705982	7.029324055
162	2	9.906051636	9.672011375	12.64027882
163	2	1.70819056	7.647035122	8.931656837
164	2	-1.752702832	1.38936317	15.83442593
165	2	4.747617245	1.704980493	10.13204002
166	2	3.494567156	4.660817623	-6.941027641
167	2	4.409618378	9.935572624	7.431233406
168	2	-2.087318659	7.867636204	-3.049036026
169	2	6.674002171	2.698543787	13.19565392
170	2	13.26855183	-3.262519121	6.28248024
171	2	8.748761177	-0.738331497	8.057148933
172	2	8.630936623	-3.481432438	15.05898762
173	2	8.443060875	6.694937229	1.253501415
174	2	12.97654819	3.776974678	5.828822136
175	2	8.636400223	2.702917099	13.70105362
176	2	15.33908367	8.634506226	6.670608044
177	2	0.040194966	5.788723946	-3.668578148
178	2	0.428794712	12.09066296	1.068759084
179	2	0.507767916	2.594172955	3.503327131
180	2	2.292747974	1.292876124	1.057563424
181	2	0.075956814	6.589560032	-0.513633311
182	2	7.396290302	10.17688656	7.241985321
183	2	10.08567905	16.034235	16.47032166
184	2	-5.316435814	2.855286837	9.542066574
185	2	4.854887962	6.058855057	14.13404751
186	2	8.556380272	7.796366692	8.207885742
187	2	16.01822472	4.131020069	10.73463535
188	2	3.887959003	2.829780579	4.188591003
189	2	12.69089222	2.622083902	0.160086229
190	2	6.573577881	8.222878456	9.863619804
191	2	4.79535675	0.632697403	13.70600033
192	2	0.784155846	2.10862565	7.575956345