# LAMMPS data 
12 atoms
2 atom types
0.0 6.5 xlo xhi
0.0 6.5 ylo yhi
0.0 6.5 zlo zhi
0.0 0.0 0.0 xy xz yz

Atoms # metal

1	2	2.10035491	0.409804344	-0.26898542
2	1	1.314585924	5.714006901	0.147151589
3	2	0.872178853	4.874121666	0.219964251
4	2	4.865702152	2.158293486	0.834421873
5	2	2.292747974	1.292876124	1.057563424
6	1	4.28783226	1.451228857	1.265752196
7	2	-1.870057106	2.910806894	1.699135423
8	2	1.378245354	6.030143738	1.855782866
9	1	1.400468111	6.086926937	2.834053755
10	2	3.922693729	1.888015151	2.883605719
11	2	3.095282555	6.270764828	2.919994354
12	1	4.077881813	6.37277174	3.167723179