LAMMPS data file via write_data, version 29 Oct 2020, timestep = 10000

12 atoms
1 atom types

0.0 5.7 xlo xhi
0.0 5.7 ylo yhi
0.0 5.7 zlo zhi

Masses

1 63.546

Atoms # atomic

1	1	3.593933501	0.002777902	0.007119206	0	0	0
2	1	0.053548505	0.027498367	3.66594998	0	0	0
3	1	1.723079368	0.048884373	1.791670695	0	0	0
4	1	1.705817218	1.706314777	3.467051234	0	0	0
5	1	3.684410538	1.728580356	1.821626713	0	0	0
6	1	3.516459834	1.763076473	5.372682914	0	0	0
7	1	1.787813689	3.579048994	5.416211669	0	0	0
8	1	1.85579962	3.586853615	1.865838243	0	0	0
9	1	3.641932948	3.599701405	0.003236713	0	0	0
10	1	3.54427034	3.613574083	3.716361973	0	0	0
11	1	5.367803082	3.685163504	1.925842482	0	0	0
12	1	1.842803745	5.35737643	0.063836082	0	0	0

Velocities

1	-2.51225227	-3.455750651	0.615423382
2	-0.222826654	1.165234314	1.961062468
3	0.141300087	2.283991085	-0.864746279
4	0.122354825	0.45971748	-1.218637335
5	-3.538006186	-5.900428776	-0.434097111
6	-0.51868479	-0.011300225	-0.339503956
7	-1.05151999	-1.694129563	0.759836887
8	0.939283264	0.548976724	1.177304756
9	0.189861748	1.202198474	-3.837858414
10	3.145332881	1.006382936	-6.707146489
11	3.21557859	-1.793243438	2.020947202
12	1.46893725	-1.274414724	2.139532806